24
XYZ FILE GENERATED BY CARP
O       -0.774880        1.286613       -0.388414        
O       -0.885683       -2.426398        0.099290        
O        1.876217       -1.915206        0.644154        
O        2.790276        0.520261       -0.814690        
O        0.943070        1.588919       -1.636765        
O       -3.431058        0.603061        0.379615        
C       -0.330353       -1.143789        0.378005        
C        1.085600       -1.070900       -0.194000        
C       -1.221100       -0.062100       -0.237500        
C        1.667579        0.322443        0.044348        
C        0.638800        1.413200       -0.253400        
C       -2.406377       -0.324832        0.686042        
H       -0.288695       -1.034601        1.468662        
H        1.222507       -1.436495       -1.219174        
H       -1.571232       -0.157086       -1.274431        
H        2.038264        0.398976        1.073646        
H        0.912186        2.346521        0.252104        
H       -2.133933       -0.186388        1.737658        
H       -2.805701       -1.334601        0.555151        
H       -0.933214       -2.529592       -0.866386        
H        1.532882       -2.820550        0.552098        
H        2.482085        0.449285       -1.734350        
H        0.421951        0.950484       -2.151455        
H       -3.064619        1.496091        0.498426        
