  72
  -125.09987590000000       0.26299744489613047      !
 C          2.8953444348        2.4026988887        1.1695174474
 H          3.5749196601        3.0239036103        1.7737109415
 O          2.5365941341        3.0598342955       -0.0089382092
 H          2.0989277261        3.8892981907        0.2158485997
 C          0.8131606121        1.3285316892        1.4158157620
 H          0.4728969428        1.7563060696        0.4639650314
 O          1.7908063820        2.1759231531        2.0042311067
 C          3.5969589694        1.0909350504        0.7893138976
 H          3.9705884964        0.6222272685        1.7070869000
 N          4.7192270494        1.3731614703       -0.0759228211
 H          4.4397726278        1.9549692085       -0.8597312580
 C          5.4824096644        0.2702663620       -0.5266185101
 O          5.9046086520        0.4555832089       -1.8354979681
 C          6.4696011012       -0.3251450893        0.4349816297
 H          6.8165376243       -1.2903408523        0.0684024983
 H          6.0043070375       -0.4738599182        1.4046487400
 H          7.3411666708        0.3261222225        0.5741269844
 C          2.5785684513        0.1322014685        0.1330972327
 H          2.1971408553        0.6029594945       -0.7878585732
 O          3.1698079432       -1.1001789609       -0.1629179756
 H          4.0827602425       -0.8940165756       -0.5216052237
 C          1.4113795540       -0.0546802401        1.1183876540
 H          1.8007271419       -0.4982068750        2.0465068167
 O          0.3712230674       -0.8530679681        0.6103271944
 C         -0.3845661039        1.2578328246        2.3741444793
 H         -0.5515519015        2.2639804747        2.7807027074
 H         -0.1670580075        0.5737969333        3.1965139991
 O         -1.5622151210        0.7638546648        1.7766515315
 C          0.4789690675       -2.2544708907        0.7447359157
 H          1.3025795048       -2.5284574601        1.4133693797
 C         -0.1488409906       -2.6349163343       -1.5256162485
 H         -0.0552219506       -3.5344884113       -2.1448417310
 O          0.7792666101       -2.8646608811       -0.4652932955
 C         -0.8442180190       -2.7740678293        1.3544341729
 H         -1.3681980811       -1.9123235978        1.8020571990
 O         -0.5336651317       -3.7162263864        2.3494609083
 H         -1.3504234471       -4.1738533081        2.5868271195
 C         -1.7309382075       -3.3817592637        0.2517329124
 H         -1.3921728043       -4.4021593411        0.0440758650
 O         -3.0655872083       -3.4840984847        0.6754229739
 H         -3.4472524690       -2.5962587481        0.6520812676
 C         -1.5981351480       -2.5238603193       -1.0195809242
 H         -2.2813626354       -2.9041143869       -1.7871502801
 O         -2.0418563206       -1.2102452215       -0.7604891203
 H         -1.3766596281       -0.7350548772       -0.2296737111
 C          0.2987228869       -1.4204598079       -2.3651233288
 H          0.0953762554       -0.4919365124       -1.8144069420
 H         -0.2589892797       -1.4056787604       -3.3054576499
 O          1.6559978625       -1.5125847519       -2.6874284984
 H          2.1354059650       -1.6988236631       -1.8606421962
 C         -2.2151034889        1.6202747766        0.9037082380
 H         -2.2107598097        2.6600862835        1.2919079141
 C         -2.1511316992        2.3918845934       -1.3466087575
 H         -2.2282159646        3.4262827235       -0.9690134754
 O         -1.5581436275        1.5821134397       -0.3451791967
 C         -3.6710013542        1.1490663961        0.7767163043
 H         -3.6525076974        0.0737621728        0.5417942642
 O         -4.3170225127        1.3725155052        2.0019462889
 H         -5.2650223160        1.2613817510        1.8460643775
 C         -4.4013066745        1.9023145134       -0.3531352475
 H         -4.5776473619        2.9335414044       -0.0232423878
 O         -5.6605316345        1.3182938066       -0.5705251259
 H         -5.5323648454        0.6356544449       -1.2485565975
 C         -3.5718889879        1.8904484083       -1.6518722588
 H         -4.0468185741        2.5566856822       -2.3818403657
 O         -3.6017383687        0.6132103220       -2.2258700181
 H         -2.9940206492        0.0223147763       -1.7401616174
 C         -1.2532123686        2.3418078163       -2.5748793513
 H         -1.5996364367        3.0604878671       -3.3114854303
 H         -1.2810642528        1.3465396899       -3.0089070812
 H         -0.2301028268        2.5758071149       -2.2951641319
 H          6.8116558965        0.1519659386       -1.9433983937
  72
  -125.09987173000000       0.26183948004601271      !
 C          2.8968702046        2.4040734483        1.1605346313
 H          3.5753280832        3.0283005506        1.7628929440
 O          2.5409871014        3.0551417325       -0.0221917738
 H          2.1029028901        3.8858595256        0.1971420102
 C          0.8135660354        1.3315843675        1.4092855042
 H          0.4721673118        1.7552568220        0.4559637194
 O          1.7906453994        2.1820573952        1.9941736923
 C          3.5989623866        1.0901974406        0.7887248060
 H          3.9691547287        0.6254080298        1.7098320859
 N          4.7242421308        1.3674868105       -0.0742183948
 H          4.4472050120        1.9445435007       -0.8623947180
 C          5.4894240435        0.2620944588       -0.5156739997
 O          5.9169285123        0.4384642195       -1.8237024877
 C          6.4713623479       -0.3292249031        0.4536073763
 H          7.3447140343        0.3202162020        0.5904773859
 H          6.8164266795       -1.2981562381        0.0951923220
 H          6.0027146220       -0.4691421995        1.4229910602
 C          2.5815486253        0.1295908666        0.1339615869
 H          2.2029266281        0.5974722720       -0.7895168634
 O          3.1724131445       -1.1044340881       -0.1561508204
 H          4.0862189157       -0.9010179969       -0.5131445379
 C          1.4118997256       -0.0527202476        1.1171740001
 H          1.7990920033       -0.4941095927        2.0472046235
 O          0.3717268032       -0.8515515657        0.6096145292
 C         -0.3832761984        1.2642120824        2.3689981725
 H         -0.5495570273        2.2716907564        2.7725174027
 H         -0.1646061854        0.5828831728        3.1932860898
 O         -1.5615518024        0.7682546667        1.7746225097
 C          0.4812475784       -2.2529442351        0.7417584959
 H          1.3054592399       -2.5271424398        1.4095265005
 C         -0.1470268043       -2.6298713431       -1.5291389400
 H         -0.0526907019       -3.5280616147       -2.1503070416
 O          0.7815870830       -2.8609641590       -0.4695419274
 C         -0.8412561441       -2.7750565304        1.3507945063
 H         -1.3666080123       -1.9147384973        1.7995212652
 O         -0.5295868505       -3.7181131602        2.3445414912
 H         -1.3454204831       -4.1784808270        2.5797288882
 C         -1.7267388797       -3.3825615582        0.2470710674
 H         -1.3850896913       -4.4015393536        0.0370314623
 O         -3.0609381997       -3.4897115624        0.6709706123
 H         -3.4454718600       -2.6030965566        0.6495561294
 C         -1.5962524032       -2.5213499360       -1.0222396925
 H         -2.2793327788       -2.9010259652       -1.7901784058
 O         -2.0417700839       -1.2089224567       -0.7601834139
 H         -1.3769482220       -0.7336960546       -0.2290198867
 C          0.2996467257       -1.4132267063       -2.3657818077
 H          0.0948615704       -0.4857604559       -1.8137085721
 H         -0.2571766220       -1.3974203740       -3.3065596989
 O          1.6573224836       -1.5038071928       -2.6870192774
 H          2.1355788517       -1.6956832750       -1.8607985488
 C         -2.2180730726        1.6235503320        0.9032697529
 H         -2.2143200770        2.6634134310        1.2913371758
 C         -2.1622679164        2.3938216508       -1.3476678132
 H         -2.2408678021        3.4283289918       -0.9706802040
 O         -1.5644351918        1.5862461358       -0.3473064281
 C         -3.6735772162        1.1499157292        0.7808822450
 H         -3.6539715144        0.0743193311        0.5473433274
 O         -4.3161613262        1.3738582367        2.0078399983
 H         -5.2644687295        1.2608534049        1.8550379723
 C         -4.4086542375        1.9005626163       -0.3475600543
 H         -4.5860829434        2.9317944297       -0.0182739156
 O         -5.6673662539        1.3138495749       -0.5608597320
 H         -5.5397153052        0.6306345725       -1.2383967815
 C         -3.5827338346        1.8889019379       -1.6484783658
 H         -4.0611320923        2.5530817951       -2.3780755752
 O         -3.6110352387        0.6108442998       -2.2207190707
 H         -2.9999347466        0.0222994185       -1.7364546736
 C         -1.2679299543        2.3448457000       -2.5785981028
 H         -1.6191260257        3.0611424071       -3.3152596151
 H         -1.2935865929        1.3487434028       -3.0109271860
 H         -0.2447869803        2.5828522500       -2.3024710193
 H          6.8309072499        0.1526078409       -1.9222283952
  72
  -125.09986635999999       0.26035579506545659      !
 C          2.9003892255        2.4059619540        1.1579849236
 H          3.5786793853        3.0302100461        1.7605271663
 O          2.5474737075        3.0554463891       -0.0264423184
 H          2.1102989852        3.8872350775        0.1906540524
 C          0.8146539843        1.3366418704        1.4059407024
 H          0.4729524833        1.7598709686        0.4524511940
 O          1.7924578223        2.1867954749        1.9901676083
 C          3.6010125460        1.0903424562        0.7897952517
 H          3.9676851640        0.6259611641        1.7125623169
 N          4.7293758201        1.3639320191       -0.0703431318
 H          4.4564431200        1.9420675266       -0.8592006574
 C          5.4912378082        0.2555862277       -0.5102012692
 O          5.9231651010        0.4316992307       -1.8168988664
 C          6.4685185953       -0.3399490455        0.4613388001
 H          5.9963929227       -0.4799376166        1.4290684713
 H          7.3433081054        0.3066013189        0.6021662085
 H          6.8118473100       -1.3094527338        0.1027220096
 C          2.5829500185        0.1316051235        0.1332927750
 H          2.2065899808        0.6002479554       -0.7908038263
 O          3.1718307043       -1.1035185976       -0.1558573015
 H          4.0876565138       -0.9015860947       -0.5097517429
 C          1.4117633533       -0.0485141968        1.1152011716
 H          1.7970405119       -0.4899720954        2.0460634436
 O          0.3716688927       -0.8466788091        0.6063878807
 C         -0.3810512318        1.2710051985        2.3672687216
 H         -0.5481199736        2.2797293363        2.7673695826
 H         -0.1603323276        0.5929969581        3.1937758832
 O         -1.5594250809        0.7714770946        1.7763257111
 C          0.4798934432       -2.2479513548        0.7409680169
 H          1.3019938409       -2.5215057166        1.4116075433
 C         -0.1417079955       -2.6293043359       -1.5311491799
 H         -0.0456023855       -3.5287611404       -2.1502851322
 O          0.7837348766       -2.8581704525       -0.4683507008
 C         -0.8444705511       -2.7688216796        1.3469995247
 H         -1.3709396658       -1.9075247826        1.7924742542
 O         -0.5358373904       -3.7098832077        2.3436154266
 H         -1.3525369450       -4.1691834529        2.5778990206
 C         -1.7266190658       -3.3786583799        0.2418649150
 H         -1.3841960040       -4.3979702338        0.0347435153
 O         -3.0621109340       -3.4852051106        0.6618259417
 H         -3.4467035095       -2.5986825598        0.6375533790
 C         -1.5922967302       -2.5197048169       -1.0285675657
 H         -2.2734105394       -2.9003574235       -1.7977854824
 O         -2.0380782459       -1.2066886397       -0.7697998587
 H         -1.3738509979       -0.7300783687       -0.2391496521
 C          0.3074953498       -1.4143721715       -2.3690154843
 H          0.1024922667       -0.4858747759       -1.8187521678
 H         -0.2476598861       -1.3994008216       -3.3108328111
 O          1.6656431414       -1.5064920838       -2.6877476835
 H          2.1424205183       -1.6959820497       -1.8601275431
 C         -2.2193999298        1.6235307731        0.9045906332
 H         -2.2170924872        2.6642637504        1.2904179202
 C         -2.1692772490        2.3899777307       -1.3479811692
 H         -2.2464582518        3.4255372840       -0.9735320611
 O         -1.5683391174        1.5850643351       -0.3473465634
 C         -3.6740290879        1.1465209506        0.7855788354
 H         -3.6524720006        0.0712205412        0.5506722313
 O         -4.3146356305        1.3674950478        2.0140515166
 H         -5.2632012708        1.2548916640        1.8623436251
 C         -4.4127222737        1.8970050525       -0.3404696480
 H         -4.5893001255        2.9281418135       -0.0104270589
 O         -5.6719263312        1.3100219549       -0.5497889930
 H         -5.5463633518        0.6273218814       -1.2282659664
 C         -3.5909530096        1.8854563413       -1.6440708956
 H         -4.0713877908        2.5503827434       -2.3716820985
 O         -3.6222746244        0.6077244682       -2.2169166162
 H         -3.0078501208        0.0191566417       -1.7369272974
 C         -1.2785898794        2.3373201205       -2.5814270674
 H         -1.6333570934        3.0495129861       -3.3203601808
 H         -1.3035129691        1.3392036382       -3.0091438215
 H         -0.2551279539        2.5785642042       -2.3093797412
 H          6.8328677638        0.1325589738       -1.9151092185
  72
  -125.09834964000000        5.2303529692682128E-002 !
 C          2.8023660874        1.8001653192       -0.6614658097
 H          3.6725234235        2.4579199019       -0.7839893148
 O          3.0214749350        0.7373856752       -1.5359980596
 H          2.1813753809        0.2450595393       -1.6354870488
 C          0.4114285899        2.1779275767       -0.5833960676
 H         -0.2487963484        2.1960216076       -1.4594766996
 O          1.6968514805        2.5762187001       -1.0455345203
 C          2.6939377530        1.3843450980        0.8269882553
 H          2.5959265294        2.3203115355        1.3872185918
 N          3.9185903340        0.7446317148        1.3021258547
 H          4.1002595556        0.9981796699        2.2635247341
 C          4.0982733179       -0.6495545978        1.1512575470
 O          4.3679485744       -1.1108408649       -0.1289652407
 C          4.8472966377       -1.3585067574        2.2319102237
 H          5.8362404724       -0.9178456225        2.4074911670
 H          4.9942952647       -2.3958706337        1.9431294157
 H          4.2902946768       -1.3231445161        3.1678831497
 C          1.4267900237        0.5271374945        1.0709595582
 H          1.7464312947       -0.5252838264        1.0604609347
 O          0.8845431943        0.7494691602        2.3496592006
 H          0.3144610282        1.5310593628        2.3264775590
 C          0.3682080321        0.7495871512       -0.0239020253
 H         -0.6207164829        0.5811732937        0.4192076679
 O          0.5007830596       -0.1133911810       -1.1519368492
 C         -0.0570688518        3.2381849168        0.4463050259
 H         -0.3744045722        4.1351882254       -0.0971437512
 H          0.7859891653        3.5152303905        1.0833829003
 O         -1.0714874664        2.8208763490        1.3372266937
 C          0.1949368325       -1.4527163296       -0.9601968312
 H         -0.6587347433       -1.5643718887       -0.2629129423
 C          1.2231989048       -3.4801612886       -0.2729374945
 H          0.3840172723       -3.7111909310        0.4051478951
 O          1.3362402204       -2.0806778691       -0.4293182882
 C         -0.1882708498       -2.0431911876       -2.3224451693
 H          0.6172344595       -1.8004795843       -3.0326483393
 O         -1.4025703833       -1.4687359936       -2.7314399114
 H         -1.7358027590       -2.0153612341       -3.4573232861
 C         -0.3262333513       -3.5733960677       -2.2304786587
 H         -1.1944293780       -3.8164104358       -1.6064188091
 O         -0.5860565228       -4.1031453491       -3.5026400003
 H          0.2683775095       -4.1702742195       -3.9530451814
 C          0.9554044913       -4.1611912192       -1.6243408271
 H          0.8133419205       -5.2420495617       -1.4509255353
 O          1.9814802334       -3.9529356453       -2.5584103275
 H          2.8248130490       -3.9411324189       -2.0631319859
 C          2.5352216103       -3.9659296540        0.3709388653
 H          2.4604976305       -5.0447505759        0.5376629947
 H          2.6514601244       -3.4624613858        1.3370055642
 O          3.6515256409       -3.7533798577       -0.4465607346
 H          3.9059929444       -2.8048015870       -0.3969934048
 C         -2.3612474356        2.7545881411        0.8242975661
 H         -2.4970045583        3.4826491166        0.0026503917
 C         -3.8667402608        1.2359649728       -0.2073406694
 H         -4.0690748163        2.0139640684       -0.9589773386
 O         -2.5742439514        1.4461901558        0.3446159844
 C         -3.3488633130        3.1062200354        1.9482563760
 H         -3.0800094321        2.5099567688        2.8358686091
 O         -3.2145838835        4.4739318042        2.2240670032
 H         -3.9527099634        4.7261109523        2.7955799446
 C         -4.7990717780        2.7815149122        1.5302617848
 H         -5.1196856874        3.5215690834        0.7878304153
 O         -5.6561504429        2.9201753130        2.6338635693
 H         -5.6472172481        2.0767446644        3.1100937923
 C         -4.8826227850        1.3627758101        0.9386486399
 H         -5.9012421860        1.1707773707        0.5872207633
 O         -4.6207233182        0.4195889274        1.9502624543
 H         -3.6597401231        0.3142006968        2.0005636760
 C         -3.8866551112       -0.1435864893       -0.8499638545
 H         -3.0203617656       -0.2680029558       -1.4946622943
 H         -4.7927874155       -0.2576163002       -1.4368747250
 H         -3.8666284611       -0.9127098766       -0.0820829945
 H          4.0231660432       -0.4551168497       -0.7699486138
  72
  -125.09834935000001        5.2287481431522863E-002 !
 C          2.7982902217        1.7918959204       -0.6694040693
 H          3.6686805391        2.4489385453       -0.7942298315
 O          3.0186126336        0.7244845773       -1.5379330477
 H          2.1791506360        0.2305441181       -1.6349105262
 C          0.4075961040        2.1716243945       -0.5947080761
 H         -0.2530277700        2.1870129164       -1.4704590614
 O          1.6932664059        2.5655977287       -1.0596873985
 C          2.6870078203        1.3843111103        0.8209808098
 H          2.5866485917        2.3234255669        1.3755513529
 N          3.9111416849        0.7495320647        1.3036533733
 H          4.0850523546        1.0042606434        2.2662596443
 C          4.0972012050       -0.6442057209        1.1555475177
 O          4.3774414328       -1.1059127891       -0.1222615989
 C          4.8427103853       -1.3481654574        2.2420091515
 H          4.2786411958       -1.3156506484        3.1739236952
 H          5.8277017177       -0.9014041206        2.4245010992
 H          4.9978918512       -2.3847507090        1.9547760307
 C          1.4204376176        0.5267440892        1.0668068774
 H          1.7405892697       -0.5255334260        1.0595532755
 O          0.8772839394        0.7527226052        2.3444144056
 H          0.3088970030        1.5355286670        2.3188440404
 C          0.3625227574        0.7455793889       -0.0294943857
 H         -0.6268961493        0.5796920652        0.4134970335
 O          0.4955213763       -0.1217962702       -1.1540990997
 C         -0.0582659933        3.2372502166        0.4307470350
 H         -0.3777309826        4.1310430468       -0.1166907207
 H          0.7867259759        3.5183363500        1.0634781043
 O         -1.0696846878        2.8247553800        1.3272361862
 C          0.1952036869       -1.4616261776       -0.9562160779
 H         -0.6540237951       -1.5739704894       -0.2536990353
 C          1.2366472381       -3.4833200010       -0.2711361657
 H          0.4012580325       -3.7177669251        0.4104132099
 O          1.3420189669       -2.0834683777       -0.4298395869
 C         -0.1944002725       -2.0568595333       -2.3146786284
 H          0.6041119315       -1.8096429990       -3.0313037576
 O         -1.4155192202       -1.4903895905       -2.7146809686
 H         -1.7508888651       -2.0395318737       -3.4376413957
 C         -0.3216768204       -3.5878917545       -2.2206073653
 H         -1.1846979092       -3.8361803318       -1.5914218557
 O         -0.5852479357       -4.1204163897       -3.4908630368
 H          0.2668970183       -4.1817947569       -3.9463304519
 C          0.9669972801       -4.1666943262       -1.6208768646
 H          0.8334217477       -5.2484928066       -1.4465669719
 O          1.9871739064       -3.9511252299       -2.5597710260
 H          2.8327051013       -3.9345857078       -2.0685263072
 C          2.5533136788       -3.9627024322        0.3679762922
 H          2.4833852265       -5.0415862190        0.5362714168
 H          2.6713048619       -3.4577135684        1.3328932248
 O          3.6655239921       -3.7465277438       -0.4541349071
 H          3.9203063383       -2.7982367571       -0.4009682995
 C         -2.3617157597        2.7602809626        0.8200553213
 H         -2.4997701735        3.4883748150       -0.0011269341
 C         -3.8741574260        1.2451778463       -0.2062215414
 H         -4.0768658656        2.0235308465       -0.9575532969
 O         -2.5792593791        1.4524142336        0.3413629003
 C         -3.3438866622        3.1137102939        1.9480285019
 H         -3.0733598115        2.5161189080        2.8340920992
 O         -3.2047656549        4.4806713473        2.2244422525
 H         -3.9402699883        4.7344771475        2.7985706339
 C         -4.7964480075        2.7935899900        1.5349383154
 H         -5.1173048289        3.5351557567        0.7940642682
 O         -5.6493068613        2.9339611770        2.6415798760
 H         -5.6413441617        2.0901140684        3.1171832282
 C         -4.8860802983        1.3752976487        0.9430201841
 H         -5.9063203289        1.1864781349        0.5948300986
 O         -4.6240608440        0.4313137898        1.9537883676
 H         -3.6632888865        0.3223414503        2.0007620276
 C         -3.8997325810       -0.1347483410       -0.8483458410
 H         -3.0334681740       -0.2638867115       -1.4921545054
 H         -4.8057156860       -0.2453846423       -1.4360569307
 H         -3.8837709865       -0.9034277731       -0.0799305324
 H          4.0284979798       -0.4554815288       -0.7664654337
  72
  -125.09751695999999        2.1669942834184299E-002 !
 C          3.1420781532        2.3757593737        0.7948685240
 H          3.9199088550        2.7908562280        1.4487644028
 O          3.1311965357        3.1142807997       -0.3692908188
 H          2.9793351656        2.5001549332       -1.1122183955
 C          0.8438784064        1.8412249768        1.0576097825
 H          0.7209697024        2.0191306791       -0.0187460611
 O          1.9562894203        2.5529833704        1.5588125695
 C          3.3896041064        0.8632008677        0.5189305508
 H          4.4482337579        0.6460053751        0.6733060719
 N          3.0566967674        0.5647719126       -0.8796920715
 H          2.0584823095        0.4013381597       -0.9821232065
 C          3.7914861193       -0.3673334844       -1.6089409472
 O          3.1950011568       -1.5861941922       -1.9131131792
 C          5.2777617872       -0.3659879925       -1.5749816754
 H          5.6856535049       -0.8969693962       -0.7042163892
 H          5.6431868505        0.6570983844       -1.5619141988
 H          5.6524089001       -0.8687926119       -2.4642318807
 C          2.5436538850        0.0281917950        1.5013285777
 H          2.7294775155       -1.0360989172        1.3249734990
 O          2.9038308909        0.2627673554        2.8355419158
 H          2.7119246234        1.1899853883        3.0362813823
 C          1.0376314345        0.3236870345        1.2811590221
 H          0.5032725852        0.0060650009        2.1872212483
 O          0.4882831605       -0.3535497133        0.1563827512
 C         -0.4052967177        2.3639394504        1.7616948402
 H         -0.4716787326        3.4489480614        1.6257859447
 H         -0.3504669763        2.1535078910        2.8401852568
 O         -1.5101174858        1.7052009981        1.1864266859
 C          0.2163947962       -1.6992972058        0.3238586179
 H         -0.1312913256       -1.9131404165        1.3521445495
 C          1.3112700518       -3.8185459942        0.1404270641
 H          0.9448959405       -4.1073222340        1.1384022910
 O          1.4184259384       -2.4067823411        0.0761959849
 C         -0.8725958074       -2.1234462022       -0.6686404111
 H         -0.5683801301       -1.7994416296       -1.6757161674
 O         -2.0867288076       -1.5183536259       -0.3026585046
 H         -2.7890496893       -2.0251360175       -0.7400887164
 C         -1.0436932833       -3.6544965270       -0.6608823983
 H         -1.4453737277       -3.9589514453        0.3128114350
 O         -1.9967881903       -4.0233066261       -1.6179512486
 H         -1.5484493568       -4.0361196908       -2.4758280160
 C          0.3116434801       -4.3272453851       -0.9117304964
 H          0.2064893090       -5.4188581031       -0.8001239020
 O          0.6824124208       -4.0008628028       -2.2252333406
 H          1.6241777229       -4.2331350257       -2.3294098085
 C          2.7241820142       -4.4057884873       -0.0464502464
 H          2.6798899939       -5.4758661904        0.1728180249
 H          3.3916168378       -3.9246194391        0.6785690820
 O          3.2242957440       -4.2915940638       -1.3493982010
 H          3.4411535389       -3.3564171480       -1.5406171194
 C         -2.7513612692        2.0841871107        1.7051617720
 H         -2.7313999420        2.0364828413        2.8098227147
 C         -3.3969092225        3.7645821014        0.0870523683
 H         -3.8503242894        4.7583938581        0.1869461099
 O         -3.1189486799        3.4083621128        1.4450518557
 C         -3.7932682704        1.0806563129        1.1833988511
 H         -3.3895123935        0.0689514045        1.2993992905
 O         -4.9605088591        1.1396436547        1.9601985999
 H         -5.2176872019        2.0654711913        2.0560665398
 C         -4.0871771271        1.3371673395       -0.3040305953
 H         -4.9618337384        0.7209084152       -0.5799294895
 O         -3.0077202536        1.0229470630       -1.1475077463
 H         -2.5152498856        0.2758805726       -0.7715265511
 C         -4.4570905878        2.8165842607       -0.5277046489
 H         -5.4206881688        3.0124038143       -0.0401259756
 O         -4.6528995704        3.0680188350       -1.8908486645
 H         -3.9448268742        2.6032635930       -2.3576688629
 C         -2.1434640557        3.8928601802       -0.7764929570
 H         -2.4199118464        4.3340053904       -1.7305757302
 H         -1.6896472463        2.9208033015       -0.9428764772
 H         -1.4300393600        4.5496804270       -0.2848215660
 H          2.3252855429       -1.6453353622       -1.4831038630
  72
  -125.09701615000000        1.2755615665293481E-002 !
 C          3.1564466359        2.3385610785        0.8613723187
 H          3.9269161575        2.7636653858        1.5174820357
 O          3.1729704351        3.0408080578       -0.3256237738
 H          3.0555304702        2.4007166360       -1.0532565146
 C          0.8445904632        1.8489656245        1.0879341035
 H          0.7432505476        2.0131248939        0.0070378062
 O          1.9598124735        2.5509428553        1.5972543850
 C          3.3913233434        0.8157247049        0.6332831022
 H          4.4413107480        0.5821718151        0.8288666833
 N          3.1011418140        0.4826809205       -0.7564975271
 H          2.1030344857        0.3294160584       -0.8819738359
 C          3.8551342610       -0.5558904824       -1.3391052628
 O          3.1359268690       -1.4914763209       -2.0697981197
 C          5.2090412748       -0.2412800002       -1.8786340825
 H          5.7103218778        0.4656936004       -1.2239508352
 H          5.1523467910        0.1976413995       -2.8813999528
 H          5.8017245458       -1.1510644372       -1.9503214863
 C          2.5016915469        0.0160070533        1.6089652477
 H          2.6788768695       -1.0533221445        1.4536857263
 O          2.8232666896        0.2693501830        2.9484916733
 H          2.6458256608        1.2044093197        3.1248443018
 C          1.0089020624        0.3315101003        1.3352976703
 H          0.4388625144        0.0317143462        2.2256011667
 O          0.4838089439       -0.3455767617        0.1988753276
 C         -0.4063206525        2.4012180214        1.7662587145
 H         -0.4664721505        3.4817474770        1.5960247413
 H         -0.3581136432        2.2242156819        2.8510622488
 O         -1.5114161909        1.7300437359        1.2062873147
 C          0.2571075727       -1.7030627517        0.3412826859
 H         -0.0151022344       -1.9567184656        1.3828108321
 C          1.3866400702       -3.7855822948        0.0355598461
 H          1.0977726239       -4.0985900430        1.0515905353
 O          1.4563229594       -2.3704819946       -0.0101841541
 C         -0.8848346836       -2.1300857329       -0.5887994629
 H         -0.6510766081       -1.7828466410       -1.6068609520
 O         -2.0844707511       -1.5549915229       -0.1365160165
 H         -2.8036371863       -2.0740527805       -0.5299919226
 C         -1.0235785061       -3.6640055273       -0.5971555260
 H         -1.3501983922       -3.9937977500        0.3961541483
 O         -2.0324761735       -4.0388750913       -1.4926886768
 H         -1.6455920213       -4.0246047215       -2.3799353545
 C          0.3258226003       -4.3006920567       -0.9523619338
 H          0.2532688970       -5.3959413891       -0.8530441059
 O          0.5971467157       -3.9446913342       -2.2826725006
 H          1.5293293850       -4.1723418580       -2.4593389508
 C          2.7946708976       -4.3406987769       -0.2591432360
 H          2.7905799659       -5.4108787143       -0.0359299136
 H          3.5044363380       -3.8421478379        0.4114510348
 O          3.1917896291       -4.2194379653       -1.5968083837
 H          3.3914175994       -3.2813560368       -1.7969728777
 C         -2.7535339748        2.1324618307        1.7048342210
 H         -2.7376874773        2.1304808426        2.8104732565
 C         -3.3856603939        3.7445525589        0.0145120331
 H         -3.8374674937        4.7426714766        0.0691551013
 O         -3.1173660927        3.4454713415        1.3881257410
 C         -3.7966839132        1.1111683199        1.2211658954
 H         -3.3983977080        0.1037954846        1.3842673797
 O         -4.9683439324        1.2095389781        1.9871028663
 H         -5.2196962332        2.1402254637        2.0433008567
 C         -4.0802727625        1.3037724387       -0.2778110435
 H         -4.9554097762        0.6790681230       -0.5326920605
 O         -2.9964607647        0.9487161475       -1.0994250425
 H         -2.5052435640        0.2226794069       -0.6823717960
 C         -4.4434931048        2.7734230399       -0.5676670657
 H         -5.4105414312        2.9924287784       -0.0970126028
 O         -4.6272154603        2.9662088055       -1.9421321312
 H         -3.9169587498        2.4792436497       -2.3824907252
 C         -2.1258556876        3.8338587438       -0.8448233366
 H         -2.3940995561        4.2370275349       -1.8179888873
 H         -1.6739362391        2.8544280794       -0.9682275472
 H         -1.4138610806        4.5078481204       -0.3746265944
 H          2.2693525976       -1.6087756857       -1.6462025304
  72
  -125.09656369000000        7.9025127695252460E-003 !
 C          2.8822140326        2.4318733946        1.0730741269
 H          3.5534858861        3.1003139835        1.6332316347
 O          2.4856947593        3.0234886812       -0.1309896209
 H          2.0365295394        3.8540579277        0.0651598194
 C          0.8290032701        1.3342511778        1.3814070159
 H          0.4729263945        1.7243290558        0.4188234068
 O          1.7942457710        2.2173933332        1.9321776949
 C          3.6213974422        1.1281867090        0.7414589318
 H          4.0466279944        0.7209070221        1.6624563507
 N          4.7192202943        1.4443778803       -0.1749450783
 H          4.3499055823        1.9167835766       -0.9936988879
 C          5.6829634288        0.4920506669       -0.4733854580
 O          5.5226050330       -0.2874181105       -1.6290231555
 C          6.4011662383       -0.2016858166        0.6292300885
 H          5.8096548256       -1.0056685950        1.0832557655
 H          6.6590650530        0.5194332208        1.3996427667
 H          7.3094307929       -0.6492181667        0.2327823471
 C          2.6274932474        0.1040753383        0.1505125832
 H          2.2494894997        0.4969529592       -0.8070269106
 O          3.2092551372       -1.1630231318       -0.0309433782
 H          3.9853950796       -1.0858435569       -0.6090345160
 C          1.4451683234       -0.0475563575        1.1224503584
 H          1.8199132712       -0.4754483290        2.0631881693
 O          0.4075355958       -0.8518851880        0.6102735222
 C         -0.3612700257        1.2726522611        2.3494981830
 H         -0.5246498211        2.2824242170        2.7477935556
 H         -0.1382780862        0.5963297535        3.1767110644
 O         -1.5434039061        0.7739338760        1.7637244517
 C          0.5316062241       -2.2534209035        0.7046468286
 H          1.3686944105       -2.5397782915        1.3500830343
 C         -0.1267918067       -2.5647805456       -1.5704456747
 H         -0.0375873964       -3.4426750614       -2.2208414560
 O          0.8177154435       -2.8244341797       -0.5315820127
 C         -0.7777001551       -2.8060683302        1.3134784033
 H         -1.3013648378       -1.9655800942        1.8004595931
 O         -0.4448339660       -3.7819130231        2.2668879375
 H         -1.2542617465       -4.2527200409        2.5034612732
 C         -1.6777444996       -3.3796415234        0.2026350122
 H         -1.3369543112       -4.3906673076       -0.0442525790
 O         -3.0051881183       -3.5036871687        0.6413336143
 H         -3.3918757331       -2.6178231506        0.6569608633
 C         -1.5696935111       -2.4795876262       -1.0419799862
 H         -2.2597948534       -2.8417351047       -1.8121786802
 O         -2.0204289021       -1.1793225294       -0.7373716174
 H         -1.3597499096       -0.7185650872       -0.1881767807
 C          0.3109067027       -1.3191482357       -2.3672080267
 H          0.0671693159       -0.4091331894       -1.8017639501
 H         -0.2123310998       -1.2924164963       -3.3267109103
 O          1.6860693765       -1.3696511969       -2.6327252587
 H          2.1051816994       -1.7305035780       -1.8315698982
 C         -2.2168354514        1.6346794292        0.9109620681
 H         -2.2178330574        2.6694325659        1.3119203699
 C         -2.1938374274        2.4285139566       -1.3327196503
 H         -2.2847783925        3.4576879523       -0.9445908952
 O         -1.5750964599        1.6194058822       -0.3467260561
 C         -3.6697536995        1.1497903472        0.7999825992
 H         -3.6439303949        0.0750912715        0.5630478888
 O         -4.3007281465        1.3643320594        2.0345535613
 H         -5.2495465972        1.2415988871        1.8928806084
 C         -4.4235874964        1.8971271777       -0.3183488184
 H         -4.6108581124        2.9245123524        0.0172439511
 O         -5.6770197263        1.2965910022       -0.5237929246
 H         -5.5471689091        0.6142025659       -1.2014706039
 C         -3.6079027314        1.9017866319       -1.6253584400
 H         -4.1025485100        2.5581883872       -2.3509342943
 O         -3.6155390298        0.6238504683       -2.1990047667
 H         -2.9958069477        0.0459305940       -1.7129526025
 C         -1.3102039567        2.4053767654       -2.5722370923
 H         -0.2860971564        2.6442791138       -2.3002197688
 H         -1.6715192487        3.1320157180       -3.2936727932
 H         -1.3350517077        1.4163683531       -3.0208198494
 H          5.1436296623        0.2415917088       -2.3404344069
  72
  -125.09636510000000        6.4047113464463295E-003 !
 C          3.2921134356        2.3132295784        0.3536711770
 H          3.9917974552        3.0106688962        0.8414916472
 O          3.1502316482        2.6147762412       -1.0012586261
 H          2.8204622250        3.5170075946       -1.0919832279
 C          1.0507578631        1.6324094220        0.6175316331
 H          0.8598662229        1.7927265244       -0.4548863747
 O          2.0885061133        2.4853275895        1.0588034382
 C          3.8333201728        0.8789334380        0.4766704763
 H          4.0750996397        0.6920358812        1.5307583456
 N          5.0118016421        0.6855349790       -0.3321386252
 H          5.1253871052        1.3784413350       -1.0557447782
 C          6.2052621344        0.2723561304        0.2970852815
 O          6.0991881503       -0.9280649491        0.9738786451
 C          7.4795517159        0.4873857914       -0.4540201818
 H          7.6305633158        1.5473512928       -0.6501553417
 H          7.4932810500       -0.0459915411       -1.4128814918
 H          8.3034832540        0.1158966665        0.1484404170
 C          2.7526109909       -0.1426195595        0.0691509777
 H          2.5831508752       -0.0598695647       -1.0150152968
 O          3.2646321264       -1.4102506480        0.3990830592
 H          2.6309066059       -2.0927662644        0.1221259360
 C          1.4314342870        0.1549640835        0.8045825248
 H          1.5639127047       -0.0654933103        1.8732835802
 O          0.3439436830       -0.5945393310        0.2896436824
 C         -0.1987784877        2.0220929314        1.4068931609
 H         -0.3066243781        3.1134189771        1.3747667032
 H         -0.0895935601        1.7110255306        2.4535647691
 O         -1.3281320437        1.3985090313        0.8328326493
 C          0.1965352467       -1.9327281780        0.6869987458
 H          0.6328790001       -2.0864476477        1.6834656366
 C          0.3098506953       -3.1775848693       -1.4059916919
 H          1.0107192447       -3.9320520723       -1.7791455709
 O          0.9074316173       -2.8060672172       -0.1605090909
 C         -1.2993761277       -2.2621434636        0.7397465792
 H         -1.8448159074       -1.5782658305        0.0721331716
 O         -1.7677318965       -2.0956914650        2.0565715302
 H         -2.5177736135       -2.7034749797        2.1513340497
 C         -1.5129858562       -3.7095137439        0.2710868294
 H         -0.9190586939       -4.3829421035        0.8996206038
 O         -2.8575651825       -4.0645945035        0.4303022323
 H         -3.3131974361       -3.7982809559       -0.3865252658
 C         -1.0860735391       -3.8311066408       -1.2077774448
 H         -1.0293567583       -4.8961954981       -1.4599665851
 O         -2.0965538332       -3.3245495674       -2.0334675564
 H         -2.0689648464       -2.3519385599       -2.0391094404
 C          0.3037541853       -2.0377549281       -2.4472431704
 H          0.0272269733       -2.4691443190       -3.4122591385
 H          1.3257960713       -1.6423039308       -2.5194110334
 O         -0.6151022132       -1.0060625747       -2.2006370401
 H         -0.3603602520       -0.5661286265       -1.3692149490
 C         -2.5586588560        1.8059257163        1.4004527920
 H         -2.4427393331        1.8555830224        2.4972406583
 C         -3.7728635929        3.2027023363       -0.1364399947
 H         -4.8102970937        3.1393698943        0.2225904487
 O         -2.9024504994        3.0917915285        0.9960834865
 C         -3.6118725170        0.7437520719        1.0421115053
 H         -3.2122743207       -0.2310777975        1.3485558652
 O         -4.8292525698        1.0198822961        1.6912425515
 H         -4.6993561954        0.9877262426        2.6458749216
 C         -3.9064566559        0.7080039617       -0.4763940529
 H         -4.9852229292        0.5248250435       -0.5640429113
 O         -3.2253172278       -0.3361511815       -1.1129474240
 H         -2.5525759271        0.0696083329       -1.6919298184
 C         -3.5547139836        2.0618840065       -1.1406681156
 H         -4.2054931223        2.2245102152       -2.0056647710
 O         -2.2504467296        2.0282358306       -1.6580338318
 H         -1.6462837882        1.9133784904       -0.9006866908
 C         -3.5106604769        4.5628989039       -0.7681308021
 H         -4.2771601275        4.7823127683       -1.5051521826
 H         -2.5384310557        4.5604932917       -1.2542395409
 H         -3.5206692316        5.3270605758        0.0030544303
 H          5.1972086489       -1.2679093632        0.8599999080
  72
  -125.09633006000000        6.1715789955589960E-003 !
 C          3.1406561461        2.3211739950        0.9571939014
 H          3.9325270163        2.7137280463        1.6075365289
 O          3.1079053334        3.0875507045       -0.1889361931
 H          2.9672498743        2.4852849257       -0.9451650243
 C          0.8531960952        1.7861793951        1.2337427933
 H          0.7456741155        1.9788649599        0.1576524798
 O          1.9681389431        2.4845942145        1.7457050576
 C          3.3724313328        0.8152857127        0.6317591066
 H          4.4343749810        0.5834341655        0.7488761715
 N          2.9975163930        0.5575156937       -0.7539850071
 H          1.9969909112        0.3869562584       -0.8239941098
 C          3.7231508721       -0.4335833955       -1.4482407551
 O          2.9631929656       -1.3195300569       -2.1974689661
 C          5.0379542005       -0.0663814953       -2.0484661335
 H          4.9146298383        0.4340359636       -3.0158234315
 H          5.6341169058       -0.9614137502       -2.2145712932
 H          5.5722764908        0.6043603587       -1.3820550750
 C          2.5491243051       -0.0445329189        1.6136890757
 H          2.7263804777       -1.1023683888        1.3930200775
 O          2.9448357821        0.1442005143        2.9438367990
 H          2.7650643602        1.0648006523        3.1815944830
 C          1.0406933683        0.2663886637        1.4394574551
 H          0.5275048629       -0.0573246063        2.3557147637
 O          0.4511105278       -0.3831765379        0.3213059441
 C         -0.4051333560        2.3044225799        1.9232057949
 H         -0.4691755713        3.3904101999        1.7959774125
 H         -0.3740048680        2.0795672853        2.9982879984
 O         -1.5067454189        1.6581552411        1.3188488778
 C          0.2760723512       -1.7559078948        0.4257892739
 H          0.1457570317       -2.0616285670        1.4799711466
 C          1.3816510554       -3.7836318268       -0.1497297874
 H          1.1971712219       -4.1692369445        0.8656139675
 O          1.4361766224       -2.3672600805       -0.1037757402
 C         -0.9840967740       -2.1484336863       -0.3532647735
 H         -0.9333862960       -1.6854320898       -1.3505974700
 O         -2.0819807728       -1.6600680001        0.3703820916
 H         -2.8793308190       -1.9798455783       -0.0741899374
 C         -1.0893548939       -3.6785278870       -0.5123299967
 H         -1.3076505603       -4.1181868994        0.4676470147
 O         -2.1697228015       -4.0010350096       -1.3419941890
 H         -1.8787444868       -3.8615552705       -2.2543952238
 C          0.2304395485       -4.2365340263       -1.0629209609
 H          0.1898978033       -5.3379040275       -1.0632272234
 O          0.3585174319       -3.7488232426       -2.3736092165
 H          1.2636586963       -3.9556694935       -2.6708100952
 C          2.7551690568       -4.3019994035       -0.6201516792
 H          2.7754755929       -5.3853264525       -0.4744758324
 H          3.5266516648       -3.8456309412        0.0112241186
 O          3.0185643051       -4.0825306812       -1.9785243350
 H          3.2124586049       -3.1342556614       -2.1246609677
 C         -2.7588031581        2.1415490265        1.7256569252
 H         -2.8062046545        2.1946852125        2.8273056859
 C         -3.1705981505        3.6954471675       -0.0843630729
 H         -3.5888194090        4.7089990675       -0.1088323065
 O         -3.0249641810        3.4523512000        1.3194289555
 C         -3.8283672554        1.1522625767        1.2272461775
 H         -3.5152651540        0.1353393486        1.4863110217
 O         -5.0440006510        1.3846409632        1.8858205317
 H         -5.2308959816        2.3320061527        1.8626349270
 C         -3.9679533144        1.2636157314       -0.2978997009
 H         -4.8480265388        0.6830049522       -0.6117956299
 O         -2.8588765326        0.7366557216       -0.9890503855
 H         -2.1280016716        0.6221948119       -0.3651319373
 C         -4.2095089845        2.7330642267       -0.7136689054
 H         -5.2080247375        3.0301780972       -0.3680795519
 O         -4.2266552823        2.8326302767       -2.1106376203
 H         -3.5592262491        2.2116980987       -2.4381386964
 C         -1.8452785605        3.7178873094       -0.8457356697
 H         -2.0316590795        4.0923166000       -1.8490081927
 H         -1.4035190877        2.7283992413       -0.9096333149
 H         -1.1513130910        4.3898563756       -0.3466234960
 H          2.1311310088       -1.4874054761       -1.7229485959
  72
  -125.09594787000000        4.1186409140714763E-003 !
 C          2.9817559547        2.1678839931        0.8682882117
 H          3.8281853754        2.7654222935        1.2327302385
 O          2.5759193490        2.6540480351       -0.3551941763
 H          2.5028216626        1.8691401355       -0.9434188439
 C          0.7793195786        1.7225655052        1.5576280752
 H          0.4448643639        2.0222116157        0.5561714848
 O          1.9922604587        2.3790610524        1.8694092456
 C          3.3567121360        0.6465957416        0.7830800532
 H          4.3894493473        0.5192550166        1.1262170263
 N          3.2275088596        0.1911682357       -0.6096437522
 H          2.5866965942       -0.5914131473       -0.6903780656
 C          4.3871507610        0.0063182231       -1.3791850697
 O          4.8801859709       -1.2639223717       -1.5846395610
 C          5.4191824143        1.0819981416       -1.3815071873
 H          4.9397685993        2.0569510831       -1.3884354394
 H          6.0385686480        0.9746484296       -2.2689781791
 H          6.0878048884        1.0299824179       -0.5129734973
 C          2.4579885191       -0.1600919061        1.7347444791
 H          2.6027421348       -1.2289446685        1.5431504107
 O          2.8216289552        0.0414710682        3.0770374167
 H          2.7406924077        0.9894401007        3.2573080403
 C          0.9665398867        0.1922140083        1.5374845042
 H          0.4069695507       -0.2676973822        2.3666622556
 O          0.4298652481       -0.2539076393        0.3073522698
 C         -0.2605769127        2.1589504489        2.5928101329
 H         -0.3209039119        3.2547932635        2.5926821300
 H          0.0442161889        1.8185173292        3.5856818718
 O         -1.5381007064        1.5908899754        2.3756585480
 C          0.1536555133       -1.6015511916        0.1966237354
 H         -0.1548026688       -2.0344051841        1.1705455857
 C          1.1529441523       -3.6310350779       -0.5464190253
 H          0.8882630890       -4.1714244147        0.3782784258
 O          1.3153337847       -2.2586493177       -0.2633707026
 C         -1.0026722052       -1.7392672195       -0.8044283602
 H         -0.6928552232       -1.2390162405       -1.7348463700
 O         -2.1815468757       -1.1894923130       -0.2937186254
 H         -2.0531040639       -0.2321319660       -0.1658755398
 C         -1.2663481544       -3.2197787395       -1.0876173131
 H         -1.6156072461       -3.6986575174       -0.1598657987
 O         -2.2281013165       -3.3614253278       -2.1043848472
 H         -2.9455453112       -2.7488108623       -1.8940371721
 C          0.0276308134       -3.8907486894       -1.5645551942
 H         -0.1391409701       -4.9784719699       -1.6259080624
 O          0.3801441229       -3.3977662001       -2.8346052346
 H         -0.4438089263       -3.3368282196       -3.3396163618
 C          2.5160912506       -4.1256183954       -1.0561136849
 H          2.4110742488       -5.1726912182       -1.3732225555
 H          3.2487368240       -4.0700217866       -0.2475042567
 O          3.0116676848       -3.3314390514       -2.0939795554
 H          2.2913594278       -3.1997569006       -2.7302519643
 C         -2.2870709924        2.1534038405        1.3520141260
 H         -2.2024104852        3.2619202674        1.3815481886
 C         -2.5458011384        2.3234797786       -0.9796272276
 H         -2.3935782387        3.4128232076       -0.8957645151
 O         -1.8598944047        1.6942182304        0.0935351702
 C         -3.7542032607        1.7499948004        1.5662561316
 H         -3.8201630637        0.6561056460        1.4603227036
 O         -4.2323532057        2.1627170467        2.8215259745
 H         -3.5935596973        1.8744552598        3.4848614324
 C         -4.6045426259        2.4214456588        0.4829821206
 H         -4.5518681361        3.5120971808        0.6283748471
 O         -5.9401247939        1.9863352535        0.5481806233
 H         -6.2187013014        2.0552074738        1.4695443644
 C         -4.0609777212        2.0541341206       -0.9084031456
 H         -4.5642895015        2.6909205282       -1.6549572633
 O         -4.3142277777        0.7045198044       -1.1868180384
 H         -5.2034949212        0.5164260600       -0.8563932468
 C         -1.9460905691        1.8023240829       -2.2769594215
 H         -2.2499145670        0.7703617051       -2.4194869379
 H         -0.8631218267        1.8606185369       -2.2225787782
 H         -2.3024018808        2.3973380878       -3.1121611996
 H          4.1640128927       -1.9162154629       -1.6813117811
  72
  -125.09594194000000        4.0928769695214116E-003 !
 C          2.9925109780        2.1718044576        0.8805513248
 H          3.8399597007        2.7631650310        1.2525698902
 O          2.5934566621        2.6687574670       -0.3408217456
 H          2.5172036675        1.8886243480       -0.9348135228
 C          0.7873796423        1.7261878166        1.5622224674
 H          0.4573617285        2.0274643715        0.5598197606
 O          2.0001417142        2.3800551802        1.8799657038
 C          3.3621419386        0.6496661216        0.7851954565
 H          4.3957699426        0.5172661421        1.1234613362
 N          3.2262209253        0.2022581282       -0.6093738674
 H          2.5760104833       -0.5720999679       -0.6935027923
 C          4.3819781028        0.0087282770       -1.3826904921
 O          4.8563134239       -1.2661938067       -1.6028523547
 C          5.4301510656        1.0687099555       -1.3738869022
 H          6.0482309195        0.9601058033       -2.2624373023
 H          6.0976368138        0.9977189548       -0.5054416578
 H          4.9655741623        2.0511365399       -1.3715340645
 C          2.4635717799       -0.1586199446        1.7354650375
 H          2.6066294658       -1.2269601689        1.5397507895
 O          2.8294968697        0.0374299133        3.0779210864
 H          2.7488838825        0.9846594828        3.2622166639
 C          0.9721301789        0.1955580610        1.5415798630
 H          0.4133093565       -0.2637493312        2.3716815130
 O          0.4327852693       -0.2490696780        0.3121136209
 C         -0.2567029461        2.1619417887        2.5937779584
 H         -0.3218623931        3.2574389044        2.5902516802
 H          0.0479194793        1.8258320486        3.5882368257
 O         -1.5312884429        1.5873127647        2.3756782078
 C          0.1545881550       -1.5962108701        0.2007784264
 H         -0.1447461540       -2.0310092260        1.1765391049
 C          1.1442025123       -3.6255499080       -0.5541079933
 H          0.8928514373       -4.1663322406        0.3742433021
 O          1.3107922091       -2.2532095806       -0.2724533988
 C         -1.0109126222       -1.7315460345       -0.7897591146
 H         -0.7069181448       -1.2357321427       -1.7242882427
 O         -2.1823669659       -1.1739356280       -0.2707038139
 H         -2.0487045680       -0.2155586997       -0.1549866152
 C         -1.2819595240       -3.2118945965       -1.0652191627
 H         -1.6211433579       -3.6875708790       -0.1320589554
 O         -2.2564727193       -3.3540131013       -2.0697214713
 H         -2.9669651921       -2.7343808973       -1.8557056283
 C          0.0048193069       -3.8866495317       -1.5564882333
 H         -0.1638295761       -4.9744030969       -1.6120363913
 O          0.3402389313       -3.3983374591       -2.8329914309
 H         -0.4908321295       -3.3384276342       -3.3265096514
 C          2.5000222035       -4.1193967052       -1.0844580706
 H          2.3908740152       -5.1664602180       -1.4003939982
 H          3.2443087534       -4.0642147119       -0.2864326929
 O          2.9801810628       -3.3239413957       -2.1287336778
 H          2.2513616501       -3.1939335050       -2.7554458537
 C         -2.2847822398        2.1495987058        1.3554675107
 H         -2.2168710337        3.2589302225        1.3972251610
 C         -2.5345970728        2.3433976743       -0.9753433682
 H         -2.3991667312        3.4337824408       -0.8770608074
 O         -1.8457031225        1.7107643416        0.0937726892
 C         -3.7464806562        1.7212611971        1.5582485123
 H         -3.7949561609        0.6275860990        1.4412759469
 O         -4.2376934485        2.1139066778        2.8149406291
 H         -3.5990778885        1.8272319870        3.4791849350
 C         -4.6022217912        2.3905445977        0.4775397941
 H         -4.5699672685        3.4800500362        0.6367702127
 O         -5.9301847111        1.9308215846        0.5299390559
 H         -6.2152843887        1.9836563582        1.4503449834
 C         -4.0459752721        2.0508314955       -0.9159798723
 H         -4.5546654439        2.6907126118       -1.6562189163
 O         -4.2778460000        0.7019099426       -1.2152508342
 H         -5.1645454005        0.4951386702       -0.8889105558
 C         -1.9195740577        1.8469639377       -2.2753147691
 H         -2.2036579038        0.8111819990       -2.4306576099
 H         -0.8381009592        1.9237754846       -2.2150937184
 H         -2.2824656343        2.4446195005       -3.1058463787
 H          4.1318123980       -1.9081913849       -1.7052758610
  72
  -125.09594044000001        4.0863855308619452E-003 !
 C          2.9867614237        2.1685177168        0.8642247325
 H          3.8326726275        2.7662431347        1.2296979940
 O          2.5865022877        2.6503668806       -0.3627982970
 H          2.5155762409        1.8637712521       -0.9488006907
 C          0.7803650852        1.7303697221        1.5485479532
 H          0.4471301994        2.0288940337        0.5463216722
 O          1.9938617236        2.3854549976        1.8611100724
 C          3.3600943493        0.6463562712        0.7868289563
 H          4.3906105737        0.5189377471        1.1364889496
 N          3.2382724683        0.1860183245       -0.6047470546
 H          2.5942319525       -0.5935964381       -0.6877491746
 C          4.4017364817       -0.0055138185       -1.3668027485
 O          4.8864075429       -1.2789778816       -1.5721972187
 C          5.4424526036        1.0615348128       -1.3580303525
 H          6.1024199449        1.0030710598       -0.4830622890
 H          4.9713174468        2.0404787903       -1.3690384563
 H          6.0692952607        0.9492996532       -2.2397755809
 C          2.4544407822       -0.1546223669        1.7367698141
 H          2.5977768536       -1.2243950290        1.5493120956
 O          2.8124507617        0.0502365793        3.0800853841
 H          2.7339586321        0.9991265563        3.2568062897
 C          0.9645123728        0.1995457408        1.5319417717
 H          0.3998755894       -0.2574366377        2.3593852656
 O          0.4329827878       -0.2481476669        0.3000987851
 C         -0.2592182342        2.1698292274        2.5829682035
 H         -0.3225391646        3.2654771252        2.5773396632
 H          0.0487678800        1.8353330470        3.5769139092
 O         -1.5355078191        1.5968783635        2.3716295439
 C          0.1554947889       -1.5956887264        0.1906222344
 H         -0.1538107007       -2.0270648057        1.1649474631
 C          1.1520601084       -3.6273549701       -0.5488399731
 H          0.8851313509       -4.1654540606        0.3767504383
 O          1.3166525771       -2.2546441030       -0.2681152012
 C         -1.0008745513       -1.7330682775       -0.8104949487
 H         -0.6905565613       -1.2333781081       -1.7410947224
 O         -2.1795946815       -1.1824843692       -0.3000644958
 H         -2.0511790501       -0.2248748380       -0.1725372799
 C         -1.2656803573       -3.2135528834       -1.0928910129
 H         -1.6168018713       -3.6912692103       -0.1651648242
 O         -2.2265964408       -3.3544382853       -2.1105419018
 H         -2.9434505375       -2.7406767578       -1.9012989637
 C          0.0275691292       -3.8871638023       -1.5680303490
 H         -0.1407462228       -4.9747792855       -1.6281751694
 O          0.3815231937       -3.3962469285       -2.8385082982
 H         -0.4421071785       -3.3343295666       -3.3440035773
 C          2.5144344884       -4.1263590300       -1.0562333522
 H          2.4075339167       -5.1746168978       -1.3690193911
 H          3.2465202651       -4.0688580729       -0.2472719926
 O          3.0122373306       -3.3372428742       -2.0968874429
 H          2.2923994045       -3.2055285036       -2.7337206046
 C         -2.2913993260        2.1557742620        1.3512966874
 H         -2.2133646527        3.2648177922        1.3814282479
 C         -2.5604198366        2.3265211997       -0.9791671383
 H         -2.4137254700        3.4166390756       -0.8951366230
 O         -1.8662954139        1.7003167290        0.0906123991
 C         -3.7552491172        1.7434511714        1.5707369970
 H         -3.8151878313        0.6493314793        1.4633899021
 O         -4.2305742149        2.1514295961        2.8286114028
 H         -3.5870818460        1.8663511866        3.4887959802
 C         -4.6136681152        2.4117557801        0.4918190683
 H         -4.5663026985        3.5025303853        0.6385048759
 O         -5.9466240539        1.9693177134        0.5618916417
 H         -6.2217537485        2.0350338928        1.4844744077
 C         -4.0739447169        2.0491222405       -0.9022504315
 H         -4.5833409646        2.6844874478       -1.6458870059
 O         -4.3215333820        0.6987039080       -1.1815526601
 H         -5.2081225647        0.5054362565       -0.8468640044
 C         -1.9635169645        1.8093293207       -2.2794381843
 H         -2.2634565166        0.7761792189       -2.4220091813
 H         -0.8806101034        1.8721905231       -2.2293024108
 H         -2.3256409277        2.4038152877       -3.1124926292
 H          4.1661861498       -1.9255724534       -1.6770866025
  72
  -125.09592182000000        4.0066571214080081E-003 !
 C          3.0803662949        2.0798622836       -0.3203288889
 H          3.1370140779        3.1720845328       -0.1785103514
 O          4.3371000596        1.5647394701       -0.6495600227
 H          4.6006736966        1.9167661741       -1.5077316681
 C          1.6466665360        0.6017492920       -1.6178277839
 H          2.2741423572        0.1601282121       -2.4042293907
 O          2.1344599792        1.9156664769       -1.3309365262
 C          2.5956996868        1.4100444301        0.9629484612
 H          1.5734864316        1.7565150719        1.1495802763
 N          3.4195179442        1.7619375126        2.0981608805
 H          4.3946689748        1.5494249466        1.9255405966
 C          2.9677107644        1.2577544888        3.3475057056
 O          1.8068110037        1.8385867711        3.8330033091
 C          4.0074964224        1.0301184739        4.4019903711
 H          3.5220674368        0.6481873001        5.2958607145
 H          4.5215551096        1.9591455091        4.6681049387
 H          4.7487306682        0.3104791935        4.0607651714
 C          2.5748957549       -0.1041338827        0.7068694174
 H          3.5843398918       -0.4364883088        0.4215173216
 O          2.1455186002       -0.8095687908        1.8442958907
 H          2.4124365620       -0.2568650433        2.6538325080
 C          1.6097438115       -0.4083673302       -0.4487984251
 H          0.5972976758       -0.4010940956       -0.0356169030
 O          1.9335227565       -1.7017296217       -0.9498094901
 C          0.2161320451        0.8016899269       -2.1622273177
 H         -0.1001828030       -0.0964536491       -2.6926262378
 H          0.2020773803        1.6717979079       -2.8241104526
 O         -0.7291347772        0.9561379635       -1.1200098282
 C          0.9252200565       -2.6508309834       -1.0079241441
 H          1.4341701466       -3.5590034517       -1.3790682090
 C         -1.0469578663       -3.1984754203       -2.1996581869
 H         -0.5770227732       -4.0883451276       -2.6553079985
 O         -0.0578823120       -2.2336673163       -1.9259533434
 C          0.2620747327       -2.9796540350        0.3469002051
 H         -0.3033287492       -2.1002638055        0.6912607417
 O          1.1845065004       -3.3896089290        1.3174778090
 H          1.7253945273       -2.6145276689        1.5556427185
 C         -0.7372750430       -4.1179790774        0.1189798935
 H         -0.1933176286       -5.0051776246       -0.2396350482
 O         -1.4274080279       -4.4169455575        1.3086560066
 H         -0.7616617190       -4.4664191818        2.0072836467
 C         -1.7708918409       -3.6763501163       -0.9266312971
 H         -2.4010553719       -4.5420438188       -1.1887161286
 O         -2.5748901246       -2.6515117934       -0.3974032680
 H         -2.7971679759       -2.9148317932        0.5069104019
 C         -2.0148198584       -2.5714831356       -3.2196223975
 H         -2.8113884015       -3.3035135387       -3.4241002381
 H         -1.4686741864       -2.3742439284       -4.1454395125
 O         -2.5434409847       -1.3492217575       -2.8085979318
 H         -2.8926462466       -1.4653202232       -1.9108359759
 C         -0.8125858993        2.2282200664       -0.5148883400
 H          0.1609342234        2.7299215275       -0.5074356133
 C         -3.0129569014        2.7084257753       -1.3671847930
 H         -3.5422864359        3.6699500218       -1.3758832994
 O         -1.6403164136        3.0934622952       -1.2245353817
 C         -1.2765645265        1.9939864116        0.9420842130
 H         -1.1995331959        0.9145012176        1.1521611220
 O         -0.4376341749        2.6911784872        1.8385367487
 H         -0.9441009403        2.8221416849        2.6526245791
 C         -2.7475494721        2.4061130087        1.0946745569
 H         -2.8112615356        3.4975378833        1.1640364636
 O         -3.2856076811        1.8882382558        2.2839507721
 H         -3.5390838502        0.9716361908        2.1063735495
 C         -3.5109192030        1.9085015254       -0.1478265008
 H         -4.5811581752        2.0998106992       -0.0064029996
 O         -3.3938411497        0.5132639693       -0.2590824679
 H         -2.5450723546        0.3030964232       -0.6809237725
 C         -3.2724782803        1.9899045403       -2.6899505886
 H         -4.3407474370        1.8263153282       -2.8022887174
 H         -2.7676999961        1.0291421894       -2.7386237565
 H         -2.9190732537        2.6136996240       -3.5062257070
 H          1.3150335176        2.2590046988        3.1144483648
  72
  -125.09585226000000        3.7223277986849841E-003 !
 C          3.2695810886        2.3706422813        0.3097951683
 H          3.9562859647        3.1053912826        0.7534435333
 O          3.1131328893        2.5840335825       -1.0591932362
 H          2.8393319481        3.4967519006       -1.2098915106
 C          1.0396234112        1.6670582389        0.5922229749
 H          0.8259046591        1.8165949474       -0.4776978452
 O          2.0615836164        2.5488635646        1.0094544432
 C          3.8442626654        0.9542057528        0.5121949563
 H          4.0203431504        0.8029010636        1.5822881582
 N          5.0995097426        0.8656447484       -0.1655964823
 H          5.0386803202        0.9656031500       -1.1718007237
 C          6.1808000568        0.1385722483        0.3481929778
 O          5.9292185964       -0.9636899010        1.1372791131
 C          7.3977886665        0.0782779154       -0.5163167498
 H          7.7226383997        1.0825241196       -0.7778554769
 H          7.2208455244       -0.4782481630       -1.4471911847
 H          8.1901631809       -0.4246222905        0.0297472546
 C          2.7845228637       -0.0699617588        0.0415960075
 H          2.6229157091        0.0634255444       -1.0400176203
 O          3.2818088438       -1.3584712025        0.3094187954
 H          2.6199541179       -2.0230752109        0.0516375905
 C          1.4555756850        0.1978226132        0.7756520784
 H          1.5898805531       -0.0258137809        1.8433305789
 O          0.3830854479       -0.5707541331        0.2550253478
 C         -0.2069144445        2.0293853720        1.3988533206
 H         -0.3320501735        3.1188278479        1.3742728853
 H         -0.0817937318        1.7138071916        2.4422496097
 O         -1.3334501057        1.3915300050        0.8335447498
 C          0.2372941178       -1.9043778293        0.6670431364
 H          0.6828350997       -2.0506032236        1.6605235495
 C          0.3321021143       -3.1584514396       -1.4210639504
 H          1.0309525799       -3.9121709647       -1.7994521987
 O          0.9409035062       -2.7834815756       -0.1817255848
 C         -1.2570280778       -2.2369663641        0.7368902683
 H         -1.8116289897       -1.5560507627        0.0739795651
 O         -1.7100695112       -2.0689177370        2.0587438696
 H         -2.4565270240       -2.6793317897        2.1643892526
 C         -1.4731545118       -3.6863413895        0.2751316839
 H         -0.8725886265       -4.3564067026        0.9009673210
 O         -2.8154795016       -4.0421624137        0.4491326971
 H         -3.2799516108       -3.7799470468       -0.3640121425
 C         -1.0601469538       -3.8145676961       -1.2071498450
 H         -1.0024433927       -4.8808701241       -1.4539096812
 O         -2.0789963838       -3.3159487477       -2.0268071707
 H         -2.0585105978       -2.3431733332       -2.0345058476
 C          0.3134052909       -2.0205391067       -2.4644314909
 H          0.0349944747       -2.4561671102       -3.4269439903
 H          1.3327503367       -1.6192017247       -2.5427864182
 O         -0.6099083371       -0.9935837191       -2.2170981864
 H         -0.3514172273       -0.5456907706       -1.3914061155
 C         -2.5641447398        1.7906249733        1.4068590704
 H         -2.4440165539        1.8386433883        2.5032850794
 C         -3.7944038330        3.1829967047       -0.1212785474
 H         -4.8295817289        3.1108386871        0.2424708906
 O         -2.9175110838        3.0751357153        1.0065550737
 C         -3.6128732727        0.7238461978        1.0499935832
 H         -3.2075685589       -0.2492189907        1.3543499957
 O         -4.8302725616        0.9921286475        1.7021010150
 H         -4.6963103844        0.9674845884        2.6563624325
 C         -3.9104638162        0.6883052971       -0.4677514358
 H         -4.9875542983        0.4945985300       -0.5532422728
 O         -3.2196465200       -0.3476602621       -1.1076210513
 H         -2.5568106449        0.0675940897       -1.6915399061
 C         -3.5723857205        2.0469407589       -1.1298171437
 H         -4.2279135624        2.2065726625       -1.9917933841
 O         -2.2698750076        2.0244857586       -1.6522859693
 H         -1.6620241154        1.9167503730       -0.8968389111
 C         -3.5456517893        4.5470780189       -0.7497317320
 H         -4.3179759940        4.7632050701       -1.4815132785
 H         -2.5762307975        4.5535310729       -1.2412523682
 H         -3.5569886282        5.3085512516        0.0240147243
 H          5.0173985768       -1.2702248332        0.9990390620
  72
  -125.09584400000000        3.6899338664712878E-003 !
 C          3.2643623084        2.3760379479        0.3445949598
 H          3.9505534565        3.1030133642        0.8016176262
 O          3.1056188987        2.6158135476       -1.0198658757
 H          2.8317457271        3.5310865150       -1.1526292029
 C          1.0366544643        1.6626797272        0.6166701671
 H          0.8245558443        1.8282097424       -0.4512210532
 O          2.0569660692        2.5393440331        1.0490410219
 C          3.8426992864        0.9569540289        0.5174992994
 H          4.0253863731        0.7858712880        1.5835466797
 N          5.0939909391        0.8848279592       -0.1694226353
 H          5.0268386696        1.0078717560       -1.1726537196
 C          6.1787021873        0.1443064902        0.3182469562
 O          5.9325250460       -0.9698449739        1.0917946167
 C          7.3842616325        0.0946829068       -0.5633223850
 H          8.1803394477       -0.4250741324       -0.0385279872
 H          7.7126415558        1.1022179660       -0.8073414131
 H          7.1910643991       -0.4399230298       -1.5039096094
 C          2.7822795044       -0.0608383941        0.0341228280
 H          2.6153288903        0.0908505524       -1.0443910654
 O          3.2815094279       -1.3535709527        0.2769450568
 H          2.6122353465       -2.0141895020        0.0274878072
 C          1.4569868120        0.1924953790        0.7791493408
 H          1.5976328818       -0.0430243999        1.8434357897
 O          0.3860886875       -0.5753294157        0.2545080077
 C         -0.2126500334        2.0090057224        1.4260052603
 H         -0.3396513732        3.0983954401        1.4188960191
 H         -0.0905863596        1.6759593352        2.4643213344
 O         -1.3363072187        1.3788050781        0.8461129075
 C          0.2353211196       -1.9072600948        0.6703704623
 H          0.6808223123       -2.0521782585        1.6640764585
 C          0.3249333900       -3.1710196436       -1.4128152521
 H          1.0201969513       -3.9304492011       -1.7864177395
 O          0.9356795019       -2.7911925756       -0.1758359603
 C         -1.2600831797       -2.2337909613        0.7423598220
 H         -1.8118723135       -1.5529313657        0.0770517052
 O         -1.7114957681       -2.0590367288        2.0639617466
 H         -2.4585020859       -2.6680212509        2.1734588047
 C         -1.4823233582       -3.6838993492        0.2863215110
 H         -0.8839714313       -4.3539358154        0.9143270205
 O         -2.8260256044       -4.0336948210        0.4625817628
 H         -3.2899919270       -3.7727746747       -0.3512366542
 C         -1.0706920840       -3.8190648096       -1.1956232006
 H         -1.0185966606       -4.8864596332       -1.4389075759
 O         -2.0875962713       -3.3182987990       -2.0162913780
 H         -2.0644121602       -2.3456378165       -2.0257635338
 C          0.3122217387       -2.0391695668       -2.4628275202
 H          0.0284311368       -2.4784435888       -3.4221672427
 H          1.3343400972       -1.6457245434       -2.5457655994
 O         -0.6030296804       -1.0042301728       -2.2192124960
 H         -0.3410033252       -0.5548166831       -1.3954899435
 C         -2.5713838903        1.7817230153        1.4072321520
 H         -2.4634072285        1.8251861555        2.5050565041
 C         -3.7761878712        3.1853598575       -0.1307147164
 H         -4.8162302507        3.1178939186        0.2200842102
 O         -2.9140228890        3.0693446876        1.0075113057
 C         -3.6213740452        0.7215053695        1.0348402040
 H         -3.2247019543       -0.2546245164        1.3406526265
 O         -4.8447792069        0.9938807539        1.6737706587
 H         -4.7216789535        0.9674377075        2.6294613883
 C         -3.9013490186        0.6923970374       -0.4863326802
 H         -4.9784852960        0.5053177067       -0.5849817360
 O         -3.2091408908       -0.3458760654       -1.1211022288
 H         -2.5396693604        0.0668808719       -1.6991352177
 C         -3.5479790061        2.0510976179       -1.1401224776
 H         -4.1927669516        2.2170475630       -2.0089880826
 O         -2.2398027667        2.0228126842       -1.6479426353
 H         -1.6413032813        1.9080619080       -0.8859678569
 C         -3.5123287761        4.5500021279       -0.7518183196
 H         -4.2739950261        4.7721194732       -1.4930254115
 H         -2.5365261544        4.5527357183       -1.2307526337
 H         -3.5297777858        5.3093208668        0.0240714026
 H          5.0202621836       -1.2757264085        0.9538728731
  72
  -125.09578686000000        3.4734324450341465E-003 !
 C          3.1033366705        2.0813484507        0.9449597241
 H          3.7230735325        2.6909740626        1.6220526978
 O          2.8630733506        2.7547542182       -0.2546404084
 H          2.4154390324        3.5865282187       -0.0614365735
 C          0.9842253239        1.0252117951        0.9757575063
 H          0.6585083776        1.5289217800        0.0558475790
 O          1.9272844870        1.8347629917        1.6661382306
 C          3.8358917869        0.7677239862        0.6194590603
 H          4.0867356383        0.2792865556        1.5663671746
 N          5.0537377335        0.9666827864       -0.1433069343
 H          4.8906083666        1.6217816018       -0.9025337459
 C          6.2173032520        1.3292853766        0.5645275849
 O          6.9430574337        2.3127294413       -0.0949671927
 C          6.9731130092        0.2530966634        1.2753512347
 H          7.5648965326        0.6739021511        2.0885739911
 H          7.6568095977       -0.2848861143        0.6037071520
 H          6.2781479556       -0.4693838654        1.6924332993
 C          2.9022844917       -0.1556003388       -0.1740726541
 H          2.6855036371        0.3014145759       -1.1518869292
 O          3.5024393059       -1.4152046644       -0.3440958500
 H          4.4019011947       -1.2582289650       -0.6618127292
 C          1.5789891933       -0.3371722561        0.5835294864
 H          1.7723577297       -0.9241724833        1.4892798267
 O          0.6362385866       -1.0089049817       -0.2325638245
 C         -0.2174919611        0.8770433420        1.9244363472
 H         -0.3026380966        1.8069995029        2.5002481436
 H         -0.0444493720        0.0478809728        2.6137499846
 O         -1.4350092362        0.5863526050        1.2757381643
 C          0.5314006108       -2.4075037602        0.0062455345
 H          1.5078109194       -2.7896792212        0.3270565006
 C         -1.0752020786       -3.1283172071       -1.6545045148
 H         -1.0003456449       -3.8427669334       -2.4820150300
 O          0.2634347627       -3.0808404128       -1.1787006891
 C         -0.5136204539       -2.6791647061        1.1052892850
 H         -1.2014357435       -1.8197788541        1.1728045726
 O          0.1458244604       -2.8408943698        2.3377707927
 H         -0.4401993423       -3.3706392275        2.8980597837
 C         -1.3087144625       -3.9396064611        0.7348416933
 H         -0.6161958023       -4.7818431072        0.6310502781
 O         -2.2118053611       -4.2613037451        1.7584553732
 H         -3.0279703933       -3.7697503816        1.5701487624
 C         -2.0597322119       -3.6890229455       -0.5910564185
 H         -2.4714535903       -4.6448968626       -0.9358613652
 O         -3.1814531264       -2.8804813046       -0.3379167208
 H         -2.9070668191       -1.9482809332       -0.3992189183
 C         -1.5287101087       -1.7944004906       -2.2810347829
 H         -2.4408941522       -1.9727014596       -2.8570580074
 H         -0.7339003999       -1.4625959825       -2.9577327024
 O         -1.8439719145       -0.7802578529       -1.3544768421
 H         -1.0309971979       -0.5197874290       -0.8766283318
 C         -2.0722914342        1.6557246240        0.6646545102
 H         -2.0156302939        2.5648797951        1.2979193966
 C         -2.0474523023        2.8945970730       -1.3728860558
 H         -2.1268430946        3.8316858332       -0.7963295508
 O         -1.4350612174        1.9022006912       -0.5690559438
 C         -3.5513021461        1.2760932705        0.4953766651
 H         -3.5893917393        0.2565421416        0.0826716854
 O         -4.1494567718        1.3091562209        1.7647753214
 H         -5.1031182229        1.2233493262        1.6311223929
 C         -4.2818567338        2.2358856036       -0.4644385884
 H         -4.4305730687        3.1955638370        0.0445639606
 O         -5.5591703864        1.7299967463       -0.7590812300
 H         -5.4522263268        1.1270641099       -1.5108586239
 C         -3.4631548608        2.4333003784       -1.7527019801
 H         -3.9512677496        3.1892834493       -2.3783395104
 O         -3.4584896494        1.2491479473       -2.5016117225
 H         -2.8275507926        0.6237746676       -2.0923780132
 C         -1.1678297291        3.0952349038       -2.5992127690
 H         -0.1418636204        3.2760662534       -2.2925008027
 H         -1.5286945491        3.9407657710       -3.1771416371
 H         -1.1982672136        2.2022704056       -3.2170181882
 H          7.8840163638        2.1752100203        0.0534010260
  72
  -125.09539104000000        2.2848230924996400E-003 !
 C          2.5268594162        1.8210855095       -0.8810117643
 H          3.3595634004        2.5021658562       -1.0992940944
 O          2.6934084292        0.7490417105       -1.7570609569
 H          1.8600952591        0.2362758995       -1.7725400281
 C          0.1428697069        2.1333308089       -0.5636983422
 H         -0.6080998260        2.1204716955       -1.3639007722
 O          1.3657260420        2.5547476060       -1.1597663682
 C          2.5857070778        1.4320633496        0.6165488261
 H          2.5083772366        2.3754171206        1.1655757036
 N          3.8671416363        0.8413493340        0.9825576263
 H          4.1372354078        1.1271121957        1.9134695511
 C          4.0847244303       -0.5480602728        0.8372670668
 O          4.2344516304       -1.0228783898       -0.4571089688
 C          4.9871710097       -1.1974099474        1.8364718162
 H          5.9745098483       -0.7214072444        1.8702098691
 H          5.1322736505       -2.2394281100        1.5636812259
 H          4.5530982154       -1.1458809753        2.8346432990
 C          1.3723674960        0.5645308426        1.0166317689
 H          1.7028498716       -0.4877442067        1.0142091841
 O          0.9988841039        0.9642230794        2.3177672841
 H          0.2498195867        0.4372562336        2.6220656085
 C          0.1990894828        0.7202168159        0.0269081160
 H         -0.7423489924        0.5340566903        0.5597341469
 O          0.2669285697       -0.1716013548       -1.0824496178
 C         -0.2453249202        3.1991205955        0.4836469068
 H         -0.2520143889        4.1694001311       -0.0278599221
 H          0.4903803568        3.2232381240        1.2890343211
 O         -1.4735091725        2.9890423997        1.1450507121
 C          0.0430165154       -1.5205117412       -0.8482399351
 H         -0.7425627116       -1.6656462124       -0.0818540221
 C          1.2176582513       -3.4937577971       -0.2349834656
 H          0.4463869072       -3.7572774585        0.5095092317
 O          1.2521909035       -2.0906298609       -0.4032978245
 C         -0.4268891575       -2.1459857035       -2.1674400709
 H          0.3025143716       -1.8735561009       -2.9461427248
 O         -1.6972248946       -1.6347801802       -2.4695006192
 H         -2.0599497862       -2.1867645108       -3.1765721646
 C         -0.4830684758       -3.6803917751       -2.0545221567
 H         -1.2834504140       -3.9572659529       -1.3581717563
 O         -0.8227303870       -4.2356549933       -3.2960643439
 H         -0.0090270368       -4.2598893514       -3.8201390183
 C          0.8715701202       -4.1997005494       -1.5552896147
 H          0.7979978037       -5.2840379299       -1.3620637876
 O          1.8027861250       -3.9520123081       -2.5745249134
 H          2.6865073110       -3.9217701783       -2.1571553083
 C          2.5963953484       -3.9194817483        0.3034545266
 H          2.5712069794       -4.9950730983        0.5025849935
 H          2.7789988883       -3.3873674041        1.2440836689
 O          3.6317314228       -3.6967306020       -0.6105368655
 H          3.8479661404       -2.7369029695       -0.6186944210
 C         -2.6455307611        2.9924399604        0.3433258077
 H         -2.4997989106        3.6631173336       -0.5151802013
 C         -3.8295715536        0.9062154252        0.5185762756
 H         -4.8385759081        1.1871794137        0.1833599040
 O         -2.8894830342        1.7272416543       -0.1767518813
 C         -3.7822776464        3.5544832194        1.2138159946
 H         -3.3968680760        4.4664566378        1.6938630130
 O         -4.8433433978        3.8540658113        0.3418378401
 H         -5.5306814592        4.3181379895        0.8337376807
 C         -4.2137958065        2.5778247410        2.3434972900
 H         -5.3118350946        2.5929564988        2.3808775233
 O         -3.7506711110        3.0017906569        3.5931395809
 H         -2.9478496581        2.4943941677        3.7932298060
 C         -3.7480273836        1.1378095577        2.0361399569
 H         -4.3988219932        0.4212107809        2.5473537362
 O         -2.4605564834        0.9076681790        2.5552690287
 H         -1.8630998393        1.5598286033        2.1377010024
 C         -3.5368631366       -0.5452792419        0.1583385438
 H         -3.1699179501       -0.6028310193       -0.8628647545
 H         -4.4379185901       -1.1428877136        0.2563015373
 H         -2.7795456716       -0.9440387995        0.8300669788
 H          3.7972352471       -0.3945244600       -1.0692994553
  72
  -125.09490778000000        1.3701296371666308E-003 !
 C          3.0864846261        2.1194159522        0.8496267629
 H          3.7395942801        2.7860159537        1.4351783853
 O          2.8056764381        2.6630189324       -0.4036130443
 H          2.3827989442        3.5217975916       -0.2889643643
 C          0.9534313403        1.1094732517        1.0788096826
 H          0.5883613591        1.5186783177        0.1273393141
 O          1.9380976257        1.9665785964        1.6405639759
 C          3.7876016862        0.7660387711        0.6354188226
 H          4.0674946758        0.3702299731        1.6169013705
 N          4.9775931587        0.8613376200       -0.1884622874
 H          4.7946376979        1.4383117169       -1.0046292631
 C          6.1717534942        1.2752150988        0.4359331764
 O          6.8789534071        2.1832249902       -0.3395697769
 C          6.9433060557        0.2648203910        1.2217906166
 H          7.6045150376       -0.3378441964        0.5835289360
 H          6.2580913597       -0.4107925181        1.7244787395
 H          7.5611941554        0.7553820593        1.9741980778
 C          2.8062276704       -0.2078934075       -0.0291885658
 H          2.5571824947        0.1688349580       -1.0340400676
 O          3.3746539468       -1.4900463092       -0.1108975630
 H          4.2629003839       -1.3839458148       -0.4774561332
 C          1.5133777477       -0.2953292213        0.7963400474
 H          1.7398613438       -0.8009755524        1.7437307555
 O          0.5229497587       -1.0167960880        0.0895483121
 C         -0.1989958752        1.0904409572        2.0984891962
 H         -0.2910821487        2.1055745305        2.5057719529
 H          0.0433749251        0.4076639933        2.9161636100
 O         -1.4355039011        0.6526943939        1.5870636127
 C          0.4632989166       -2.4225313035        0.3308279759
 H          1.4024583361       -2.7662513595        0.7770805790
 C         -0.8183945498       -3.0102997574       -1.6389396176
 H         -0.9840205993       -4.0288662477       -2.0153799793
 O          0.3808360426       -3.1100313008       -0.8664537101
 C         -0.6928588627       -2.7113763555        1.3151054705
 H         -1.0003600525       -1.7505226368        1.7621869742
 O         -0.2151077453       -3.5752858186        2.3165935700
 H         -0.9769109418       -3.8997403260        2.8137734654
 C         -1.9052803082       -3.3058200414        0.5792659545
 H         -1.7494062705       -4.3808389758        0.4376132208
 O         -3.0711891481       -3.1756997771        1.3493363712
 H         -3.3156623392       -2.2398730658        1.3579452494
 C         -2.0431802934       -2.6241414667       -0.7958099102
 H         -2.9443792034       -3.0046247853       -1.2913030328
 O         -2.2670049286       -1.2457675984       -0.6514043321
 H         -1.4452706403       -0.7842750654       -0.4067825336
 C         -0.5888660369       -2.1102569817       -2.8693107039
 H         -1.4901800199       -2.1159167598       -3.4884497632
 H          0.2401771934       -2.5538119943       -3.4406972987
 O         -0.3109953235       -0.7724004824       -2.5748939816
 H          0.2891748041       -0.7468430348       -1.8116199358
 C         -2.1220897004        1.5697206059        0.7988159058
 H         -2.0490349442        2.5890786255        1.2315800784
 C         -2.1831832078        2.3774449894       -1.4437050320
 H         -2.2239021881        3.4125086591       -1.0605912834
 O         -1.5445167730        1.5533812541       -0.4836695824
 C         -3.6014413695        1.1604766030        0.7671800105
 H         -3.6469656402        0.0880707182        0.5284914865
 O         -4.1544210416        1.4041792496        2.0358077164
 H         -5.1147674302        1.3449877337        1.9388956818
 C         -4.3741566462        1.9439375458       -0.3114851572
 H         -4.4938644612        2.9805300732        0.0266117982
 O         -5.6646960874        1.4041777077       -0.4477057753
 H         -5.5960314546        0.7051780016       -1.1176263294
 C         -3.6281885939        1.9020428887       -1.6601697689
 H         -4.1347228361        2.5747430524       -2.3628442201
 O         -3.7224699284        0.6220526908       -2.2183880445
 H         -3.0810122560        0.0307268200       -1.7808637068
 C         -1.3535905822        2.3069680734       -2.7174569994
 H         -1.8474100862        2.8596671000       -3.5106845459
 H         -1.2360676407        1.2677062380       -3.0110613531
 H         -0.3681697297        2.7283987333       -2.5420199919
 H          7.8243295960        2.0441940423       -0.2230993000
  72
  -125.09487851000000        1.3283425977591032E-003 !
 C          2.9316267473        2.1330713153        0.7306589172
 H          3.6753033101        2.8052224828        1.1816192669
 O          2.4978837852        2.6142361201       -0.5094148568
 H          2.1752075195        3.5159656691       -0.3987213032
 C          0.8385060402        1.2075917467        1.2668907793
 H          0.4221156213        1.5377313671        0.3043668501
 O          1.8825241531        2.0767023999        1.6635311071
 C          3.5824699811        0.7504681236        0.5105239222
 H          4.0191657021        0.4287098026        1.4609012091
 N          4.6373819457        0.8058136823       -0.4605019706
 H          4.3070296853        1.0590707014       -1.3827159161
 C          5.8342352309        1.4704400576       -0.1140650102
 O          6.1835791995        1.3757337987        1.2169380982
 C          6.9361467764        1.3876881294       -1.1229303634
 H          7.7155779687        2.1055810349       -0.8734764785
 H          6.5547125685        1.6153027745       -2.1144054404
 H          7.3917496348        0.3885473746       -1.1565146498
 C          2.5268447834       -0.2763243915        0.0806186147
 H          2.1525585720       -0.0033449013       -0.9190167685
 O          3.1503688622       -1.5270370136        0.0629056545
 H          2.5704123047       -2.1737170224       -0.3707147154
 C          1.3470875693       -0.2308603716        1.0808654529
 H          1.6954676660       -0.6318432060        2.0425871430
 O          0.2240238793       -0.9775874974        0.6308913610
 C         -0.2534188718        1.3112995016        2.3444225645
 H         -0.2932723215        2.3577381083        2.6732481235
 H          0.0037662526        0.6842540987        3.1998551309
 O         -1.5294781003        0.8763239208        1.9318272929
 C          0.1941709948       -2.3633750238        0.8957838195
 H          0.7403938893       -2.5854041894        1.8224072184
 C          0.0300808563       -3.5287952560       -1.1978529729
 H         -0.4094850419       -4.5061245909       -0.9500649990
 O          0.8310256711       -3.0955044924       -0.1020158911
 C         -1.2847457942       -2.7409650918        1.0556798651
 H         -1.7063206576       -2.0850936237        1.8316473709
 O         -1.3325144622       -4.0910210915        1.4421286743
 H         -2.2333275098       -4.3130699910        1.7035355744
 C         -2.0548473033       -2.4700795658       -0.2605085540
 H         -2.8320186741       -3.2375712973       -0.3619794374
 O         -2.7289698106       -1.2455502605       -0.2003995532
 H         -2.0743247364       -0.5266676067       -0.0976107249
 C         -1.1197842935       -2.5513163655       -1.5001199043
 H         -1.6878215759       -2.9351150061       -2.3548598905
 O         -0.6681345532       -1.2840775808       -1.9039679319
 H         -0.2421711021       -0.8594772641       -1.1340655247
 C          0.9821175210       -3.6918217358       -2.3954093756
 H          0.4031251066       -4.0817598991       -3.2461684844
 H          1.7596801444       -4.4125111051       -2.1333694803
 O          1.6420226779       -2.5063956691       -2.7299686349
 H          0.9671994647       -1.8145046003       -2.8298220481
 C         -2.2016757265        1.7065350153        1.0495948792
 H         -1.9790720520        2.7720874274        1.2544971155
 C         -2.4142964081        2.1245639485       -1.2935705677
 H         -2.2600950243        3.1989181368       -1.0968169600
 O         -1.7818093765        1.3796678151       -0.2620058338
 C         -3.7108010281        1.4781488909        1.2168287716
 H         -3.8975942995        0.3943350250        1.1701984392
 O         -4.0892914241        1.9866149573        2.4695367631
 H         -5.0559116476        2.0041598108        2.4866706914
 C         -4.5037651287        2.1892181008        0.1009346659
 H         -4.4588256659        3.2695574614        0.2874674391
 O         -5.8557049167        1.8151613057        0.1708042029
 H         -5.9577978781        1.0461209712       -0.4130292522
 C         -3.9313806953        1.8698508005       -1.2956634462
 H         -4.4028380370        2.5387964493       -2.0258642424
 O         -4.3032693731        0.5769574359       -1.6864591616
 H         -3.7545945331       -0.0853113666       -1.2281852522
 C         -1.7587909903        1.7265508082       -2.6079046964
 H         -1.8737761081        0.6586951301       -2.7675956177
 H         -0.6984791206        1.9596134423       -2.5766856820
 H         -2.2239409035        2.2653373047       -3.4273925091
 H          6.8729027220        0.7070892072        1.3485630864
  72
  -125.09482591000000        1.2564257070551946E-003 !
 C          2.9030751506        2.4291758906        1.0299215176
 H          3.5951131269        3.0753873136        1.5887163269
 O          2.4860149082        3.0381932530       -0.1526021886
 H          2.1192968441        3.9064926894        0.0510942545
 C          0.8381556006        1.3535621435        1.3672309357
 H          0.4664507456        1.7706368568        0.4224159575
 O          1.8292661735        2.2075887430        1.9143139184
 C          3.6098566523        1.1126374378        0.6690404917
 H          3.9966302765        0.6733773599        1.5944773268
 N          4.7439800241        1.3854518506       -0.2077985262
 H          4.4192314365        1.7131815794       -1.1102839924
 C          5.7901941193        0.4741668713       -0.3116715415
 O          5.8425092715       -0.3934095857       -1.3845740026
 C          6.5440525343        0.0745969615        0.9082508740
 H          7.5397199227       -0.2533940373        0.6170083496
 H          6.0771428273       -0.7599988304        1.4501220450
 H          6.6263945012        0.9237352302        1.5807050922
 C          2.5713338479        0.1605920207        0.0387065872
 H          2.1666501962        0.6246081079       -0.8675871312
 O          3.1531344483       -1.0420137158       -0.4010602528
 H          3.5382623117       -1.5199560215        0.3431365414
 C          1.4324434733       -0.0310573744        1.0581774765
 H          1.8410102106       -0.4695186399        1.9833654903
 O          0.3733940826       -0.8302697228        0.5839507342
 C         -0.3332948397        1.2810578714        2.3573413784
 H         -0.4966630150        2.2890776346        2.7597789839
 H         -0.0914448565        0.6055420074        3.1800263757
 O         -1.5211462155        0.7734265815        1.7913169708
 C          0.4904736411       -2.2306940810        0.6897387317
 H          1.3139854384       -2.5156729964        1.3568912638
 C         -0.1582107966       -2.5970630845       -1.5806011974
 H         -0.0537100492       -3.4909471570       -2.2060590335
 O          0.7948695718       -2.8104991522       -0.5356183578
 C         -0.8173409031       -2.7771910386        1.3060616744
 H         -1.3503952484       -1.9280050335        1.7662648434
 O         -0.4727307010       -3.7192164465        2.2897871151
 H         -1.2768566715       -4.1919925520        2.5404636754
 C         -1.7037360513       -3.3939738659        0.2092540315
 H         -1.3449857017       -4.4046278976       -0.0127792605
 O         -3.0294752792       -3.5293617476        0.6474275664
 H         -3.4362189577       -2.6525862615        0.6284269865
 C         -1.6009240727       -2.5183606394       -1.0519808876
 H         -2.2871079222       -2.9003096801       -1.8157904639
 O         -2.0623165659       -1.2151425368       -0.7715026493
 H         -1.4000200823       -0.7299754449       -0.2469625097
 C          0.2330138356       -1.3680948586       -2.4251456638
 H          0.0784612248       -0.4512466871       -1.8403304109
 H         -0.3998090494       -1.3326783931       -3.3157670004
 O          1.5580442474       -1.4555220536       -2.8649651942
 H          2.1115284775       -1.6275330256       -2.0862114468
 C         -2.2012458313        1.6211268683        0.9307050744
 H         -2.1933529333        2.6625419314        1.3136388849
 C         -2.1917781098        2.3999838218       -1.3159497269
 H         -2.2581602586        3.4309636389       -0.9278682212
 O         -1.5759963601        1.5811260406       -0.3349377495
 C         -3.6570742655        1.1422676223        0.8370249124
 H         -3.6396935456        0.0686754936        0.5932299137
 O         -4.2749715585        1.3527539869        2.0784014441
 H         -5.2268169245        1.2475556018        1.9423726182
 C         -4.4165361242        1.9018747251       -0.2697164441
 H         -4.5858208937        2.9303509018        0.0723520600
 O         -5.6796399577        1.3171125522       -0.4594755907
 H         -5.5701903943        0.6441670965       -1.1502778467
 C         -3.6202965757        1.9021605439       -1.5893594239
 H         -4.1135238307        2.5748823721       -2.3008392426
 O         -3.6650159807        0.6301425884       -2.1747057104
 H         -3.0463027512        0.0348565636       -1.7101312908
 C         -1.3239389599        2.3604198416       -2.5659778707
 H         -1.3615109388        1.3693032150       -3.0086291059
 H         -0.2947594859        2.5941612164       -2.3091290085
 H         -1.6886349726        3.0851456485       -3.2875286372
 H          4.9579416582       -0.5357414357       -1.7523726965
  72
  -125.09482333000000        1.2530001638324873E-003 !
 C          2.9058333864        2.4319442017        1.0206989764
 H          3.5977940865        3.0804986820        1.5769030528
 O          2.4907358288        3.0348154142       -0.1656754419
 H          2.1244596734        3.9045116147        0.0328077872
 C          0.8393080695        1.3594605989        1.3619539087
 H          0.4667135064        1.7726197205        0.4157142558
 O          1.8307812501        2.2156935783        1.9049895851
 C          3.6114649534        1.1126149795        0.6680737435
 H          3.9946035481        0.6771016482        1.5967157765
 N          4.7485984300        1.3778178348       -0.2069818179
 H          4.4274445400        1.7025730659       -1.1120869415
 C          5.7915069351        0.4616806255       -0.3042539486
 O          5.8440831183       -0.4082860547       -1.3752167201
 C          6.5378354986        0.0609632404        0.9201964905
 H          7.5311814338       -0.2778523128        0.6339793878
 H          6.0615509655       -0.7664112935        1.4650481076
 H          6.6262858745        0.9123305648        1.5890060255
 C          2.5725611612        0.1597946360        0.0395742171
 H          2.1701619420        0.6215098092       -0.8688712330
 O          3.1536262753       -1.0449915911       -0.3952803246
 H          3.5344740668       -1.5223104086        0.3514695226
 C          1.4323098013       -0.0269802564        1.0582731948
 H          1.8393075138       -0.4627118714        1.9855419427
 O          0.3723644101       -0.8263893169        0.5861736630
 C         -0.3309433616        1.2914890574        2.3539176112
 H         -0.4945867127        2.3015279021        2.7512091261
 H         -0.0872682894        0.6205512987        3.1798246177
 O         -1.5190448420        0.7798134931        1.7922818362
 C          0.4906912905       -2.2267329374        0.6903243451
 H          1.3125889030       -2.5116480851        1.3594274314
 C         -0.1514804730       -2.5913224163       -1.5821287813
 H         -0.0447075994       -3.4845256693       -2.2081391791
 O          0.7990252383       -2.8050158360       -0.5348351304
 C         -0.8180267558       -2.7754049480        1.3025135276
 H         -1.3530828366       -1.9274051809        1.7623721036
 O         -0.4751076841       -3.7184684520        2.2857525459
 H         -1.2792429961       -4.1926669962        2.5332576762
 C         -1.7005802088       -3.3917001804        0.2023952272
 H         -1.3397178652       -4.4014930308       -0.0201837121
 O         -3.0273174387       -3.5296039231        0.6365561808
 H         -3.4354708304       -2.6535209071        0.6177546242
 C         -1.5954823566       -2.5140553628       -1.0572017739
 H         -2.2794316653       -2.8952136349       -1.8233858057
 O         -2.0582354723       -1.2115075197       -0.7759037239
 H         -1.3971340007       -0.7262594002       -0.2499639897
 C          0.2410841269       -1.3615312608       -2.4247618087
 H          0.0871592145       -0.4451642268       -1.8390477247
 H         -0.3910604970       -1.3240032805       -3.3157519625
 O          1.5663044961       -1.4498254084       -2.8639466633
 H          2.1187745635       -1.6246064590       -2.0851191624
 C         -2.2039132246        1.6238969340        0.9320212272
 H         -2.1993342319        2.6657549158        1.3138622775
 C         -2.2020244965        2.4014632828       -1.3149205654
 H         -2.2709181825        3.4323476843       -0.9271661695
 O         -1.5811331907        1.5853094609       -0.3348907921
 C         -3.6579338733        1.1389060314        0.8418009991
 H         -3.6366883360        0.0653467847        0.5982067406
 O         -4.2738502157        1.3472000905        2.0844936160
 H         -5.2254931852        1.2372140389        1.9509762568
 C         -4.4229548092        1.8950419898       -0.2633909478
 H         -4.5961745196        2.9226803242        0.0790875335
 O         -5.6837713142        1.3045255025       -0.4504578599
 H         -5.5728912578        0.6330517702       -1.1424842720
 C         -3.6296041085        1.8990771313       -1.5848185538
 H         -4.1265970801        2.5707450734       -2.2946367925
 O         -3.6718193180        0.6274685463       -2.1711061933
 H         -3.0496945805        0.0338963812       -1.7088596947
 C         -1.3372055063        2.3640095070       -2.5670712965
 H         -0.3077686916        2.5991932090       -2.3123559267
 H         -1.7048971736        3.0885372959       -3.2872754454
 H         -1.3742279744        1.3730053724       -3.0100872173
 H          4.9596805620       -0.5502883917       -1.7439307268
  72
  -125.09474827000000        1.1573266135676066E-003 !
 C          3.1740996437        1.9773949339        0.8814498438
 H          3.8497767494        2.5922525611        1.4984283773
 O          2.9200456461        2.6106124153       -0.3427654050
 H          2.4212243346        3.4181503480       -0.1728348270
 C          1.0119729034        1.0223598718        1.0931679721
 H          0.6640446940        1.4493361177        0.1429079615
 O          2.0233807461        1.8405865893        1.6651018993
 C          3.8273709378        0.6162809726        0.5854492956
 H          4.1748678579        0.1839774974        1.5277744560
 N          4.9766642452        0.7328049052       -0.3219772226
 H          4.6519782623        1.1228240012       -1.2034879858
 C          6.1223290863        1.3917476923        0.1252541273
 O          6.2836834640        2.7413087709       -0.1614071574
 C          6.8047079410        0.9265709737        1.3624771050
 H          7.8273322453        1.2961252439        1.3621149212
 H          6.8125026810       -0.1593772748        1.3885684916
 H          6.3227801010        1.2968899535        2.2760424610
 C          2.8068492966       -0.3297009435       -0.0511296986
 H          2.5314847216        0.0584700129       -1.0466559091
 O          3.3398210770       -1.6234435839       -0.1598789053
 H          4.2290246518       -1.5413539993       -0.5292996237
 C          1.5323552011       -0.3953369142        0.8057138209
 H          1.7698631787       -0.9020544776        1.7494095246
 O          0.5148733150       -1.0976686435        0.1202051250
 C         -0.1460599107        1.0344462748        2.1063840878
 H         -0.2116068675        2.0505430418        2.5167706084
 H          0.0714193569        0.3421580558        2.9229284516
 O         -1.3906293622        0.6342939948        1.5847618146
 C          0.4178656341       -2.5000128263        0.3713378409
 H          1.3436443074       -2.8637888413        0.8293924729
 C         -0.8608013747       -3.0722194098       -1.6053835405
 H         -1.0520614743       -4.0904852591       -1.9700716672
 O          0.3291522139       -3.1939640706       -0.8214907865
 C         -0.7541841841       -2.7508507281        1.3469918966
 H         -1.0374713203       -1.7793794419        1.7869073225
 O         -0.3083157528       -3.6225724956        2.3558235261
 H         -1.0819718745       -3.9234261598        2.8495152054
 C         -1.9774458247       -3.3138915809        0.6041385033
 H         -1.8532155505       -4.3943147721        0.4730094549
 O         -3.1460667249       -3.1419327063        1.3614198933
 H         -3.3622962576       -2.1991582178        1.3612950044
 C         -2.0812890507       -2.6409590450       -0.7781819839
 H         -2.9889313520       -2.9978173030       -1.2792662924
 O         -2.2633718307       -1.2546519621       -0.6493280352
 H         -1.4310482888       -0.8174392947       -0.3961647409
 C         -0.5957975049       -2.1944023614       -2.8444133175
 H         -1.4958543513       -2.1697795566       -3.4648014947
 H          0.2160806130       -2.6746892755       -3.4103958491
 O         -0.2638823405       -0.8661646801       -2.5599444309
 H          0.3198495361       -0.8607886980       -1.7835214665
 C         -2.0400540590        1.5674291818        0.7837463878
 H         -1.9389180157        2.5869607158        1.2103733147
 C         -2.0548569809        2.3549752176       -1.4686422528
 H         -2.0671382982        3.3953949747       -1.0982203828
 O         -1.4498973797        1.5236564997       -0.4927470088
 C         -3.5310454359        1.2048385158        0.7405698004
 H         -3.6082691676        0.1320474496        0.5120022272
 O         -4.0873696197        1.4787925173        2.0012913808
 H         -5.0482807182        1.4477477029        1.8967236893
 C         -4.2685641576        2.0013994505       -0.3531191677
 H         -4.3583238288        3.0445579681       -0.0260732832
 O         -5.5740241121        1.5015822229       -0.4963544126
 H         -5.5227298773        0.7953006657       -1.1601691034
 C         -3.5119117623        1.9229874922       -1.6942143412
 H         -3.9898339594        2.6054214969       -2.4074705699
 O         -3.6422417357        0.6423694599       -2.2429987954
 H         -3.0287343454        0.0322398002       -1.7913075486
 C         -1.2158064308        2.2426640952       -2.7332958378
 H         -1.6891309302        2.7929576566       -3.5404102945
 H         -1.1209995935        1.1958585373       -3.0080690337
 H         -0.2221526044        2.6439899645       -2.5565296458
 H          5.6390090921        3.0118129513       -0.8251531761
  72
  -125.09474605000000        1.1546110214858164E-003 !
 C          1.3153343301        2.4808330212       -0.5751785326
 H          1.4160966518        3.3373346030        0.1040633541
 O          1.8137708034        2.8593900820       -1.8062868439
 H          2.2687577905        2.0881384315       -2.1933594152
 C         -0.5032588747        1.0067442168       -1.0785458865
 H         -0.0638985710        0.7878204003       -2.0611608495
 O         -0.0883743471        2.2742323827       -0.6142909236
 C          2.0592658717        1.2389048685       -0.0165630443
 H          2.8773621096        1.5814371703        0.6200886184
 N          2.6403216771        0.4815713024       -1.1378486412
 H          1.9371876569       -0.1199741931       -1.5592180744
 C          3.8394789083       -0.2104931060       -0.9773332142
 O          3.8008565356       -1.5979442725       -0.9064662277
 C          5.0150028536        0.4382222427       -0.3386155616
 H          4.9790641141        0.3990331824        0.7583673399
 H          5.0739464020        1.4779042245       -0.6485941551
 H          5.9188342079       -0.0807500225       -0.6510605795
 C          1.0988148797        0.3595318225        0.8063279130
 H          1.6426626010       -0.5377827815        1.1249810311
 O          0.6742846194        0.9582766829        1.9951880456
 H          0.1878661213        1.7794555952        1.8269193085
 C         -0.0817144237       -0.1014681089       -0.0895379042
 H         -0.9238887149       -0.3500168664        0.5691164811
 O          0.2513308244       -1.2294622613       -0.8928670926
 C         -2.0271128011        1.0544227847       -1.2297423287
 H         -2.3883928373        0.0686218374       -1.5463770937
 H         -2.2959145828        1.8000606938       -1.9826628985
 O         -2.5781542116        1.3901534542        0.0273998879
 C          0.2525099733       -2.4659671075       -0.2710535595
 H         -0.5290268715       -2.5224062272        0.5088131892
 C          1.7321024388       -3.9019780015        0.9334131547
 H          0.9772550046       -4.0484375288        1.7223213553
 O          1.5256723954       -2.6410036971        0.3211218398
 C         -0.0165013586       -3.5418325321       -1.3297305059
 H          0.7003068150       -3.3977278708       -2.1543397780
 O         -1.3327809200       -3.3872976067       -1.7828711123
 H         -1.5715366209       -4.2055410280       -2.2413452280
 C          0.1888386103       -4.9471120973       -0.7324007380
 H         -0.5865357416       -5.1290837542        0.0206805545
 O          0.0140946119       -5.9173434878       -1.7276380563
 H          0.8392636719       -5.9549737953       -2.2322739518
 C          1.5840872193       -5.0332633995       -0.0974708106
 H          1.6902414286       -5.9991001873        0.4238129837
 O          2.5086963425       -4.9419915857       -1.1502435125
 H          3.3814441185       -4.7527214249       -0.7575648576
 C          3.1255192291       -3.8729811666        1.5909232326
 H          3.2431843506       -4.7821150277        2.1864036319
 H          3.1689975122       -3.0047015835        2.2591802365
 O          4.1868539571       -3.8607017468        0.6760647239
 H          4.2257605427       -2.9935913187        0.2263791594
 C         -3.6891593863        2.2777927194        0.0188321226
 H         -4.4213170916        1.9697783225       -0.7407440257
 C         -3.6153568988        2.5412182597        2.4003883813
 H         -4.3888048808        2.9482222460        3.0632330770
 O         -4.3474414587        2.1657404962        1.2272173719
 C         -3.2399285924        3.7256451050       -0.2993695573
 H         -2.2293469358        3.6964087254       -0.7425739800
 O         -4.1436553834        4.2741062058       -1.2253415401
 H         -3.9955896350        5.2280378204       -1.2522795456
 C         -3.1665895129        4.5557000899        0.9971380395
 H         -4.1744127437        4.8907592970        1.2644041371
 O         -2.3944488004        5.7127316240        0.8060972767
 H         -1.4643123600        5.4483842200        0.8338041513
 C         -2.5977935757        3.6642320479        2.1142022311
 H         -2.4557456226        4.2596671833        3.0223050703
 O         -1.3107079436        3.2133523476        1.7664846856
 H         -1.4037179562        2.6143090305        1.0035235519
 C         -2.9698937113        1.3319384320        3.0726704714
 H         -2.4862356434        1.6445132411        3.9939749175
 H         -2.2291167797        0.8799955239        2.4211482123
 H         -3.7366617641        0.5960289053        3.2962323113
 H          2.8795471500       -1.9077971559       -0.8768823189
  72
  -125.09465571000000        1.0493450286911470E-003 !
 C          2.8113743041        2.0333575531       -0.2738045124
 H          3.6250080785        2.7277875979       -0.5172617399
 O          2.6355424589        1.2475977357       -1.4114891304
 H          1.8053212725        0.7374377043       -1.3246494759
 C          0.5263647584        2.1720449335        0.4324871313
 H         -0.1948196766        2.2269271344       -0.3929233181
 O          1.7151285123        2.8448129950        0.0254945781
 C          3.1919925239        1.2329216079        0.9967094254
 H          3.3036512991        1.9913142500        1.7794919677
 N          4.4705453915        0.5485765041        0.8491349734
 H          5.0562199494        0.6372589976        1.6664544735
 C          4.5325349840       -0.7628883008        0.3262558590
 O          4.2397600559       -0.9058721272       -1.0219504170
 C          5.6607662699       -1.6226604797        0.8016168677
 H          5.6522094727       -2.5570661421        0.2471837771
 H          5.5627641186       -1.8394071642        1.8655275114
 H          6.6361604603       -1.1480711602        0.6403011913
 C          2.0315544834        0.2942102284        1.3988979387
 H          2.2961359493       -0.7162588847        1.0424158096
 O          1.8381080855        0.2823406636        2.7976051622
 H          2.6413914250       -0.0361330325        3.2237431576
 C          0.6826793832        0.6811239599        0.7641677186
 H         -0.0968645428        0.4300123493        1.4956639789
 O          0.4234064785       -0.0204330083       -0.4514284579
 C         -0.0631994600        2.9114388889        1.6498877963
 H         -0.1846665154        3.9709807492        1.3986129921
 H          0.6152348546        2.8108503425        2.4998272735
 O         -1.2813199276        2.3429417444        2.0781375525
 C          0.1612712424       -1.3788100703       -0.3575838351
 H         -0.3538377569       -1.6151346933        0.5943050199
 C          1.3183332873       -3.4599239937       -0.4704586009
 H          0.8168178978       -3.8431901440        0.4345268993
 O          1.3972511404       -2.0508998848       -0.4149185152
 C         -0.7520875871       -1.7668124788       -1.5269716431
 H         -0.2961117357       -1.3841652436       -2.4529536788
 O         -2.0135496065       -1.1827110987       -1.3197697768
 H         -2.6491213062       -1.6892463273       -1.8473803451
 C         -0.8840426029       -3.2954254847       -1.6297182303
 H         -1.4258478509       -3.6680520355       -0.7521192781
 O         -1.6588079010       -3.6305570556       -2.7490410746
 H         -1.0723113754       -3.5837680683       -3.5176320727
 C          0.5169248183       -3.9179135248       -1.6985519492
 H          0.4279551217       -5.0177698458       -1.6699677015
 O          1.0897202748       -3.5120567521       -2.9135470323
 H          2.0597793507       -3.5145169405       -2.7945831008
 C          2.7689561078       -3.9758436175       -0.5036828083
 H          2.7524056170       -5.0679887473       -0.5621605846
 H          3.2651757514       -3.6761076672        0.4264482922
 O          3.4750350863       -3.5147217095       -1.6209716350
 H          3.6996502210       -2.5694314077       -1.4823505037
 C         -2.4181042744        2.6844549758        1.3631665505
 H         -2.5422215575        3.7865996276        1.3138220932
 C         -3.4568532054        2.3827105110       -0.7548149025
 H         -3.7302475199        3.4508584803       -0.7334912471
 O         -2.3147417035        2.1695520050        0.0545126718
 C         -3.6145883105        2.0772044385        2.1132204003
 H         -3.3530063511        1.0331518560        2.3496934028
 O         -3.8131152083        2.8123271950        3.2906600302
 H         -4.6481835986        2.5126835393        3.6753224743
 C         -4.8985530367        2.0914688736        1.2582142585
 H         -5.2779627165        3.1194170055        1.2184081347
 O         -5.8919578839        1.3181747379        1.8832710866
 H         -5.7503716094        0.4037138951        1.5958883696
 C         -4.6185399942        1.5732935229       -0.1652415464
 H         -5.5249252819        1.6962159419       -0.7714158968
 O         -4.3381583574        0.1960828529       -0.1145172233
 H         -3.3768628904        0.0724193513       -0.1527413468
 C         -3.0946718472        1.9526345316       -2.1697763105
 H         -2.3082654003        2.5936677213       -2.5569014732
 H         -3.9669239976        2.0217241235       -2.8128756220
 H         -2.7305478185        0.9291531436       -2.1532038123
 H          3.7449003016       -0.1164880584       -1.3226386646
  72
  -125.09456963000000        9.5798493690099531E-004 !
 C          3.0509859991        2.0980190106        0.9155598045
 H          3.7078533062        2.7346083976        1.5294346393
 O          2.7633177483        2.7047991501       -0.3074321821
 H          2.3401391666        3.5557744879       -0.1450847817
 C          0.9277260919        1.0758995599        1.0925075057
 H          0.5939231554        1.5179228465        0.1445686078
 O          1.9056186291        1.9063467050        1.7024471897
 C          3.7503877411        0.7568996170        0.6311797056
 H          4.0466183936        0.3211515912        1.5908255027
 N          4.9278551692        0.8912548806       -0.2053359141
 H          4.7365714846        1.5132879837       -0.9855594969
 C          6.1356827993        1.2593377304        0.4211546040
 O          6.8377051581        2.2043832317       -0.3142105511
 C          6.9118757194        0.1974670324        1.1312181485
 H          7.5542721299        0.6378406481        1.8940549477
 H          7.5487502073       -0.3778630123        0.4449005608
 H          6.2293704649       -0.4961997264        1.6129866878
 C          2.7677553305       -0.2009556228       -0.0572517356
 H          2.5004819455        0.2061518310       -1.0452136723
 O          3.3577592282       -1.4689558717       -0.1932110831
 H          4.2429155414       -1.3301636947       -0.5574267866
 C          1.4879068772       -0.3225778262        0.7844223026
 H          1.7329645133       -0.8395189387        1.7216499532
 O          0.4821409194       -1.0364336869        0.0924801533
 C         -0.2614220335        1.0316018178        2.0658597167
 H         -0.3494331573        2.0248619324        2.5242684360
 H         -0.0704340960        0.2997990171        2.8540719372
 O         -1.4809740342        0.6521803472        1.4733687118
 C          0.5291348716       -2.4585737348        0.2244138440
 H          1.5392141817       -2.7725923916        0.5073203235
 C         -0.9875762526       -2.9826506865       -1.5903005491
 H         -1.1026446190       -3.9551158794       -2.0875007055
 O          0.3134529990       -3.0557865042       -1.0037739325
 C         -0.4578979737       -2.8997529384        1.3297299588
 H         -0.8124657975       -1.9939168605        1.8517615428
 O          0.2278324319       -3.7284508868        2.2344095510
 H         -0.4323222859       -4.1754365802        2.7801690036
 C         -1.6789985761       -3.6112649876        0.7223097534
 H         -1.4057104150       -4.6419563921        0.4717229304
 O         -2.7245414618       -3.6834833803        1.6564806663
 H         -3.1560235903       -2.8168090438        1.6727739014
 C         -2.1122606027       -2.8571333461       -0.5475053872
 H         -3.0161452923       -3.3281419012       -0.9517144335
 O         -2.5067589286       -1.5504618588       -0.2295719206
 H         -1.7411947124       -1.0099003383        0.0267179062
 C         -1.0330647132       -1.9162225651       -2.7016421153
 H         -1.9820263058       -2.0045188388       -3.2370059845
 H         -0.2086504192       -2.1420509866       -3.3932989843
 O         -0.9451063147       -0.5881882478       -2.2661806024
 H         -0.2704581116       -0.5310588801       -1.5674425997
 C         -2.1186453445        1.6327823918        0.7192956753
 H         -2.0589305806        2.6164523460        1.2300425042
 C         -2.0711271473        2.5877934313       -1.4629655018
 H         -2.1658388065        3.5900343795       -1.0099795405
 O         -1.4706275157        1.7084300398       -0.5284248995
 C         -3.5985863015        1.2435546785        0.5927039579
 H         -3.6496864558        0.1794546624        0.3256153476
 O         -4.2060902026        1.4667431695        1.8427944559
 H         -5.1588293438        1.3725821724        1.7101079730
 C         -4.3131980291        2.0604259692       -0.5005617427
 H         -4.4717975164        3.0825633308       -0.1362059670
 O         -5.5846552404        1.5131526367       -0.7399874231
 H         -5.4511249080        0.7913804630       -1.3738256583
 C         -3.4781604870        2.0755645515       -1.7963110418
 H         -3.9628093144        2.7472200819       -2.5170762970
 O         -3.4750711316        0.7970741420       -2.3683739819
 H         -2.6741532963        0.3174764260       -2.0838316816
 C         -1.1663151038        2.6384694454       -2.6859728943
 H         -0.1763991983        2.9820729736       -2.3996254916
 H         -1.5844427003        3.3151363992       -3.4251680980
 H         -1.0810252314        1.6421036305       -3.1094397086
 H          7.7834582125        2.0611823942       -0.2079904304
  72
  -125.09437362000000        7.7853603932159093E-004 !
 C          2.8102545924        2.0220683921       -0.2987251094
 H          3.6246101681        2.7147572546       -0.5503777336
 O          2.6390828056        1.2170113264       -1.4286217544
 H          1.7888683986        0.7382196283       -1.3532198095
 C          0.5245098212        2.1741715609        0.4007327658
 H         -0.2040131131        2.2329823411       -0.4178510305
 O          1.7127813882        2.8386365572       -0.0241560323
 C          3.1708012746        1.2363174968        0.9905375221
 H          3.2414805829        2.0053932806        1.7728235489
 N          4.4256688871        0.5153446048        0.9920444824
 H          5.2346590741        1.1326143753        0.9815754893
 C          4.5890218131       -0.7232670135        0.3703024561
 O          4.2130054482       -0.9203203423       -0.9548493402
 C          5.7835841401       -1.5150205125        0.7886301600
 H          5.7621382525       -1.6937335001        1.8616039725
 H          6.7214885070       -0.9960513936        0.5545466202
 H          5.7880214505       -2.4650537855        0.2615971147
 C          2.0202674277        0.2851203386        1.3647114489
 H          2.2863893287       -0.7163939799        0.9915887338
 O          1.8336162734        0.2388225822        2.7610934058
 H          2.6755091627        0.0038929617        3.1680029042
 C          0.6724552276        0.6829749665        0.7345647556
 H         -0.1071033519        0.4375620664        1.4676177724
 O          0.4056368078       -0.0191290707       -0.4806429097
 C         -0.0492730479        2.9211503678        1.6211775049
 H         -0.1688678958        3.9803638853        1.3668551289
 H          0.6363194811        2.8205505078        2.4653832947
 O         -1.2654690883        2.3595105964        2.0629376354
 C          0.1480426308       -1.3781434096       -0.3795834801
 H         -0.3632456209       -1.6103436649        0.5750492997
 C          1.3044597759       -3.4578091215       -0.4622307466
 H          0.7988072310       -3.8209628637        0.4483664050
 O          1.3849932865       -2.0479927925       -0.4371664141
 C         -0.7658100252       -1.7789899979       -1.5442343356
 H         -0.3114222796       -1.4062784532       -2.4750674432
 O         -2.0278467439       -1.1943459125       -1.3427011031
 H         -2.6638436564       -1.7086518280       -1.8620737658
 C         -0.8953770574       -3.3092513937       -1.6294705817
 H         -1.4397194219       -3.6711654848       -0.7489590411
 O         -1.6665129700       -3.6588336125       -2.7469676755
 H         -1.0775793201       -3.6227736933       -3.5141585776
 C          0.5057177492       -3.9336825069       -1.6852180422
 H          0.4151133587       -5.0328289210       -1.6424306621
 O          1.0844759069       -3.5447766974       -2.9033384631
 H          2.0535741763       -3.5427680798       -2.7785080915
 C          2.7540299864       -3.9777662259       -0.4789429381
 H          2.7355811151       -5.0702579857       -0.5284178904
 H          3.2449876453       -3.6703353621        0.4513795580
 O          3.4687863551       -3.5265084390       -1.5954609434
 H          3.6995177470       -2.5841407614       -1.4537388967
 C         -2.4079115789        2.6970153200        1.3551486374
 H         -2.5316196481        3.7987984316        1.2987669558
 C         -3.4671816054        2.3775409229       -0.7504584219
 H         -3.7426158662        3.4452127239       -0.7340479499
 O         -2.3166528015        2.1726767187        0.0491377543
 C         -3.5976615579        2.0965979604        2.1213100772
 H         -3.3321421552        1.0556627950        2.3667444123
 O         -3.7861567927        2.8445795012        3.2921929740
 H         -4.6141634153        2.5446396439        3.6911211500
 C         -4.8893686689        2.0999866566        1.2778521116
 H         -5.2716441454        3.1266833462        1.2326241545
 O         -5.8750137475        1.3302356797        1.9189478137
 H         -5.7329754730        0.4132224024        1.6404455106
 C         -4.6212862605        1.5701297788       -0.1437568124
 H         -5.5335304924        1.6859589214       -0.7427510314
 O         -4.3366266804        0.1940703757       -0.0842857273
 H         -3.3758609375        0.0720935885       -0.1365261131
 C         -3.1181157218        1.9381059618       -2.1658357092
 H         -2.3383310443        2.5792572444       -2.5660980312
 H         -3.9974401644        1.9993131467       -2.7999405658
 H         -2.7502856988        0.9159245435       -2.1456369484
 H          3.6707683405       -0.1652562491       -1.2658118403
  72
  -125.09437225000001        7.7740819239589462E-004 !
 C          2.8093753320        2.0220096365       -0.3007278404
 H          3.6235613917        2.7148163682       -0.5527155329
 O          2.6387164639        1.2161796927       -1.4302271863
 H          1.7876691905        0.7388037210       -1.3554747690
 C          0.5238712996        2.1740406306        0.3999132807
 H         -0.2056276524        2.2330915754       -0.4177798878
 O          1.7116773216        2.8383199360       -0.0267409428
 C          3.1703650182        1.2367970997        0.9887765147
 H          3.2410135539        2.0062574287        1.7707526997
 N          4.4258352078        0.5169259299        0.9896873774
 H          5.2342135236        1.1348173564        0.9766031647
 C          4.5895785470       -0.7233956539        0.3714765011
 O          4.2054725231       -0.9263426705       -0.9504905647
 C          5.7909675139       -1.5081664493        0.7830162137
 H          6.7246124667       -0.9986849219        0.5136440591
 H          5.7813411527       -2.4713585591        0.2804730827
 H          5.7922853761       -1.6590445852        1.8601805271
 C          2.0201041416        0.2855246600        1.3639518037
 H          2.2859578103       -0.7165464233        0.9923988757
 O          1.8331837268        0.2414580152        2.7604078127
 H          2.6744739890        0.0052012440        3.1677714301
 C          0.6722420702        0.6828444204        0.7333325365
 H         -0.1072618262        0.4370793462        1.4663036864
 O          0.4057337563       -0.0190235376       -0.4820152671
 C         -0.0486170218        2.9203468689        1.6214234904
 H         -0.1677829705        3.9798382599        1.3682039846
 H          0.6370893515        2.8186651886        2.4653762287
 O         -1.2649066830        2.3588320244        2.0631964130
 C          0.1441894209       -1.3772993203       -0.3813826752
 H         -0.3742764199       -1.6073966730        0.5699697531
 C          1.2957862775       -3.4600291153       -0.4548768112
 H          0.7819093476       -3.8214806921        0.4517491603
 O          1.3797348924       -2.0504700494       -0.4296971684
 C         -0.7625078052       -1.7764838763       -1.5522188715
 H         -0.3009157950       -1.4044486912       -2.4797824909
 O         -2.0247432704       -1.1893837025       -1.3592865528
 H         -2.6579069980       -1.7021049743       -1.8836104914
 C         -0.8949297045       -3.3064727755       -1.6387349280
 H         -1.4469398075       -3.6673811377       -0.7625640258
 O         -1.6581898837       -3.6538870874       -2.7623432378
 H         -1.0631765819       -3.6187946010       -3.5249481886
 C          0.5051184071       -3.9340341607       -1.6838186138
 H          0.4116764711       -5.0329354318       -1.6416589393
 O          1.0940476570       -3.5465473632       -2.8975141532
 H          2.0623058899       -3.5499101636       -2.7660290385
 C          2.7441467728       -3.9835676696       -0.4596378387
 H          2.7234344751       -5.0761449872       -0.5053227499
 H          3.2292689558       -3.6740433878        0.4731178227
 O          3.4678931453       -3.5382094579       -1.5726245858
 H          3.6973274771       -2.5948798223       -1.4345667573
 C         -2.4075140090        2.6976036631        1.3562735685
 H         -2.5312604048        3.7994782738        1.3015006539
 C         -3.4676014953        2.3809918660       -0.7493685119
 H         -3.7436046693        3.4485429882       -0.7308550502
 O         -2.3166741287        2.1751440019        0.0494826609
 C         -3.5967821144        2.0953451463        2.1218210913
 H         -3.3308673605        1.0543169719        2.3662939051
 O         -3.7855861859        2.8421252839        3.2933549815
 H         -4.6128866821        2.5406069963        3.6925808637
 C         -4.8887954497        2.0985407441        1.2787527107
 H         -5.2723402980        3.1247592213        1.2350641234
 O         -5.8735500854        1.3264973894        1.9185155032
 H         -5.7306698387        0.4103085805        1.6380262754
 C         -4.6208685528        1.5715045590       -0.1438079398
 H         -5.5335055083        1.6877873520       -0.7419938389
 O         -4.3351343582        0.1955728018       -0.0868780461
 H         -3.3744875582        0.0743459195       -0.1416382553
 C         -3.1190221971        1.9444089967       -2.1658316072
 H         -2.3389572380        2.5860550440       -2.5646788749
 H         -3.9982663236        2.0075196074       -2.7999693208
 H         -2.7514664032        0.9220756377       -2.1480924867
 H          3.6648030544       -0.1708382735       -1.2629927296
  72
  -125.09435113000001        7.6022655041425727E-004 !
 C          2.4524266965        1.8473398023       -0.6235475191
 H          3.2139059975        2.5921462439       -0.8888411737
 O          2.5149297880        0.8816505819       -1.6291222824
 H          1.6978549664        0.3439331629       -1.5931652489
 C          0.1317401363        1.9445698882        0.0573193030
 H         -0.7100117187        1.9940851340       -0.6450661882
 O          1.2409379450        2.5395324023       -0.6138926297
 C          2.7593700872        1.2934949264        0.7902112185
 H          2.6910146995        2.1583053686        1.4589645425
 N          4.1152902752        0.7653761759        0.8812994524
 H          4.5870048597        1.0466919350        1.7280861265
 C          4.3796742958       -0.5900912830        0.5804030316
 O          4.2774002581       -0.9575572149       -0.7523085917
 C          5.5132968804       -1.2379556711        1.3091399250
 H          5.6386306414       -2.2515344865        0.9378947173
 H          5.3167116126       -1.2739245189        2.3805152706
 H          6.4602494865       -0.7070817966        1.1547328774
 C          1.6778522930        0.2692689670        1.2022624605
 H          2.0627714876       -0.7318766705        0.9548398927
 O          1.3921931585        0.3533189723        2.5851838404
 H          2.1683144301        0.0722591104        3.0819013467
 C          0.3478567140        0.4783377586        0.4507468912
 H         -0.4545504164        0.1752480482        1.1366220617
 O          0.2513907494       -0.2884448560       -0.7446181215
 C         -0.2203885556        2.7959758026        1.2976485066
 H          0.0032759211        3.8425392674        1.0594651210
 H          0.3659527502        2.4779330199        2.1625037750
 O         -1.5648347499        2.6650347912        1.7066176953
 C          0.1089861933       -1.6639844018       -0.6148637170
 H         -0.5525815147       -1.9094321350        0.2384043149
 C          1.4291576971       -3.6266200459       -0.3628654121
 H          0.7863097135       -3.9896721782        0.4570628224
 O          1.3898844357       -2.2145718105       -0.4060592644
 C         -0.5207390337       -2.1913495168       -1.9098018957
 H          0.0826891125       -1.8199090661       -2.7532142757
 O         -1.8351406565       -1.7125497612       -1.9859134783
 H         -2.2895616137       -2.2373969784       -2.6596477500
 C         -0.5099728394       -3.7308909108       -1.9313615579
 H         -1.1903979856       -4.1026037525       -1.1563421419
 O         -1.0095161262       -4.1921511445       -3.1573792353
 H         -0.2827357354       -4.1296809501       -3.7938025531
 C          0.9186740539       -4.2313576915       -1.6799561903
 H          0.9081530247       -5.3305389951       -1.5794919995
 O          1.6846539374       -3.8556331032       -2.7940414869
 H          2.6167549842       -3.8118999723       -2.5043407166
 C          2.8872589632       -4.0258716786       -0.0686601942
 H          2.9378963781       -5.1154557333        0.0148833346
 H          3.1810887804       -3.5822715708        0.8899726514
 O          3.7717987560       -3.6530411203       -1.0870158302
 H          3.9296856805       -2.6850515604       -1.0334250040
 C         -2.5248498298        3.3868965461        0.9491217134
 H         -2.1089012739        4.3737607289        0.6933084209
 C         -3.9589954197        1.9258185810       -0.3273920851
 H         -4.8288373127        2.5643489049       -0.5491480577
 O         -2.8039161452        2.7642491134       -0.2594070056
 C         -3.7473616959        3.5967036425        1.8582292638
 H         -3.3638698223        3.9069359474        2.8419601231
 O         -4.5069844217        4.6238457271        1.2694801034
 H         -5.2353428079        4.8481971972        1.8601957902
 C         -4.5806689743        2.3017755098        2.0685994788
 H         -5.6390082741        2.5751376957        1.9571785516
 O         -4.4134694679        1.7930428449        3.3607829279
 H         -3.7620530888        1.0743274795        3.2960989985
 C         -4.2250502928        1.2283635836        1.0129701636
 H         -5.0633757038        0.5338089205        0.8989698669
 O         -3.1504884054        0.4464107545        1.4634542164
 H         -2.3750932715        1.0350240619        1.5237632234
 C         -3.7319978606        0.9368484390       -1.4613247710
 H         -2.9554307259        0.2227096326       -1.2002624247
 H         -3.4246769400        1.4786918407       -2.3504272445
 H         -4.6524120798        0.3994111182       -1.6689073371
 H          3.7281081926       -0.2934013322       -1.2204920612
  72
  -125.09432560000000        7.3996343084839218E-004 !
 C          2.9751202838        2.3146830532        1.0461479976
 H          3.6898141838        2.9383355602        1.6068239578
 O          2.6014330574        2.9432319263       -0.1464782120
 H          2.1856909983        3.7874495201        0.0664089656
 C          0.8746419566        1.3227274834        1.3911002932
 H          0.5479171932        1.6963896003        0.4113276684
 O          1.8847567272        2.1659365986        1.9173108330
 C          3.6413617902        0.9710246905        0.6959647759
 H          4.0745939399        0.5537020490        1.6140613093
 N          4.6769136730        1.1377339206       -0.2955076768
 H          4.6189388120        2.0101713929       -0.7978625038
 C          5.9871348657        0.7201709921        0.0233920361
 O          6.0905607467       -0.6194143262        0.3451522614
 C          7.1009778407        1.2803226610       -0.8009107459
 H          7.0049613089        1.0222745330       -1.8631618907
 H          8.0392201321        0.8691939191       -0.4396591164
 H          7.1297967790        2.3649166543       -0.7138188293
 C          2.5898335138       -0.0376936502        0.1893099073
 H          2.2104783661        0.3087822864       -0.7824376380
 O          3.2474581279       -1.2741097574        0.0514648559
 H          2.6321732840       -1.9264488375       -0.3200829257
 C          1.4246397620       -0.0958888612        1.1929680781
 H          1.8011155896       -0.4849980039        2.1507307005
 O          0.3364795160       -0.8866132443        0.7535686210
 C         -0.3245708044        1.3578909634        2.3491722976
 H         -0.4628255668        2.3946956334        2.6821710974
 H         -0.1272872124        0.7287773661        3.2188773804
 O         -1.5129653192        0.8551945087        1.7816719924
 C          0.4782632146       -2.2824655744        0.8000002142
 H          1.2770242093       -2.5862817880        1.4885894647
 C         -0.0601483129       -2.5593672152       -1.5215631526
 H          0.0515827670       -3.4357828228       -2.1700324426
 O          0.8628505117       -2.7810419324       -0.4539284364
 C         -0.8397712234       -2.8936073478        1.3173172829
 H         -1.4060803840       -2.0850167216        1.8096741758
 O         -0.5144139441       -3.8913643285        2.2495382632
 H         -1.3199533380       -4.3857272733        2.4483745762
 C         -1.6755376432       -3.4524769015        0.1504230418
 H         -1.3016342711       -4.4481970366       -0.1104803332
 O         -3.0177277028       -3.6128577845        0.5243076851
 H         -3.4347430088       -2.7409771837        0.4988710642
 C         -1.5251271873       -2.5042024545       -1.0497494256
 H         -2.1646822264       -2.8389543723       -1.8727836147
 O         -2.0092097450       -1.2252889485       -0.7123727961
 H         -1.3705620754       -0.7581694425       -0.1442799183
 C          0.3270887800       -1.3269762450       -2.3510570859
 H          1.4109470936       -1.3631172114       -2.5299981649
 H          0.0827271810       -0.4075869298       -1.8032503533
 O         -0.3857319876       -1.4008262472       -3.5632732694
 H         -0.1287911123       -0.6623727414       -4.1252447260
 C         -2.1616464295        1.6790444750        0.8769474134
 H         -2.1359460613        2.7363410883        1.2129306977
 C         -2.1226671088        2.3512425260       -1.4038846848
 H         -2.1687298974        3.4021966905       -1.0711362458
 O         -1.5233151498        1.5736525857       -0.3801841294
 C         -3.6257976259        1.2242674626        0.7929992162
 H         -3.6264813669        0.1400668229        0.6013040830
 O         -4.2447239327        1.5060297092        2.0196349284
 H         -5.1970245704        1.4016856972        1.8868608045
 C         -4.3645104298        1.9446433099       -0.3520188705
 H         -4.5163131587        2.9911891848       -0.0604572749
 O         -5.6371252362        1.3760801853       -0.5249266063
 H         -5.5340829034        0.6645806491       -1.1770196972
 C         -3.5582497130        1.8656567712       -1.6621621002
 H         -4.0334838518        2.5117875871       -2.4101331866
 O         -3.6199430395        0.5679914583       -2.1843623261
 H         -2.9984852651       -0.0127141370       -1.7034649366
 C         -1.2591094026        2.2252466885       -2.6519434250
 H         -0.2160071659        2.3944059767       -2.3988050040
 H         -1.5744888562        2.9562024294       -3.3905411722
 H         -1.3769402367        1.2290718520       -3.0696771518
 H          5.2114948182       -1.0241004826        0.2716143724
  72
  -125.09412561000001        5.9882678391233359E-004 !
 C          1.4384408708        1.2852324968       -1.4145112036
 H          2.0465683689        2.1436675347       -1.7248545617
 O          2.1064620863        0.1593300315       -1.8882888688
 H          1.5327104861       -0.6264171677       -1.7880296529
 C         -0.8113324939        0.5136076165       -1.7544701729
 H         -0.8833213592       -0.1367565566       -2.6417372749
 O          0.1895936993        1.4926848459       -2.0131667196
 C          1.2542731899        1.3202918401        0.1220996413
 H          0.7332724937        2.2584784087        0.3336335617
 N          2.5291338847        1.3682148541        0.8251628198
 H          2.5268092568        2.0416562325        1.5769044247
 C          3.2052997184        0.1857958579        1.1930472027
 O          3.7567532891       -0.5579898604        0.1570869810
 C          4.0603137490        0.2519425444        2.4185579457
 H          4.5965743395       -0.6865852168        2.5290557501
 H          3.4517320691        0.4214035001        3.3066024640
 H          4.8034567132        1.0557996050        2.3583553364
 C          0.3550077377        0.1455546844        0.5624954032
 H          1.0296986437       -0.6588276956        0.9033272157
 O         -0.5117838429        0.5084555774        1.6165646006
 H          0.0193583602        0.8779089832        2.3315803950
 C         -0.5120424067       -0.4329421939       -0.5736788876
 H         -1.4623260649       -0.7382256037       -0.1167646116
 O          0.1026473525       -1.5675720296       -1.1873219985
 C         -2.1692487862        1.2230675771       -1.6202305868
 H         -2.9604895634        0.4709065439       -1.6716724870
 H         -2.2789771494        1.9285336622       -2.4498621241
 O         -2.3389992105        1.8918499450       -0.3886771572
 C          0.2238376316       -2.7346372305       -0.4435988376
 H         -0.6383654591       -2.8554776039        0.2401727061
 C          1.7632162578       -3.8232680449        1.0075410274
 H          0.9663694601       -4.0673224584        1.7304873267
 O          1.4188614813       -2.6521367488        0.2954180226
 C          0.2500069909       -3.9058521590       -1.4336645540
 H          1.0161426502       -3.6833813219       -2.1930503195
 O         -1.0198684884       -4.0100496394       -2.0201027489
 H         -1.0580124044       -4.8755506604       -2.4509993701
 C          0.6248050153       -5.2181289795       -0.7219699496
 H         -0.1868537639       -5.4997123285       -0.0409034317
 O          0.7366963935       -6.2532026491       -1.6610989206
 H          1.6127433679       -6.1676662965       -2.0641077758
 C          1.9333501723       -5.0155467328        0.0539298715
 H          2.1440553722       -5.9175219751        0.6542814606
 O          2.9479130982       -4.8205911460       -0.8958510611
 H          3.6556711009       -4.3035208488       -0.4635170703
 C          3.0607843080       -3.5072638869        1.7744131987
 H          3.3530597696       -4.3931234868        2.3457599844
 H          2.8605288901       -2.6843884003        2.4700850291
 O          4.1279289921       -3.1974835415        0.9230914337
 H          3.9989111021       -2.2890377887        0.5738216423
 C         -1.8676694291        3.2230414770       -0.3536877276
 H         -0.9416088030        3.3140655770       -0.9355119077
 C         -4.0529442417        4.2373044116       -0.3953912904
 H         -4.3036497044        5.2937087077       -0.5537129854
 O         -2.7471179796        4.1142957451       -0.9700904335
 C         -1.5776196507        3.5635867895        1.1316086452
 H         -1.5495413408        2.6164623898        1.6813894975
 O         -0.2963440810        4.1201604026        1.2894392115
 H         -0.3107661046        5.0404178560        1.0004867827
 C         -2.6983493539        4.4507136785        1.7045142876
 H         -2.5222944726        5.4941149719        1.4152962668
 O         -2.7200606614        4.4271091635        3.1040978158
 H         -3.1352797084        3.5952470551        3.3714287864
 C         -4.0443016476        3.9721251257        1.1230306872
 H         -4.8531641450        4.5475202762        1.5873520114
 O         -4.2888849969        2.6398374560        1.4927975738
 H         -3.7006189006        2.0625889877        0.9802891307
 C         -5.0756238629        3.3722730940       -1.1290538286
 H         -4.8700949231        2.3162173096       -0.9820772900
 H         -5.0391389117        3.5948415200       -2.1917829505
 H         -6.0694059853        3.5911563717       -0.7485287609
 H          3.3234617833       -0.3009334412       -0.6809319368
  72
  -125.09397856000000        5.1253286173081160E-004 !
 C          2.9156220478        2.1837198801       -0.3733220954
 H          2.8423827679        3.2663900606       -0.1870719270
 O          4.0795323210        1.8735108308       -1.0740099638
 H          4.1012231902        2.3812631717       -1.8938646398
 C          1.6193235352        0.5049272821       -1.4616817455
 H          2.4276434821        0.2228591595       -2.1512024868
 O          1.7568650651        1.8775478847       -1.1067377728
 C          2.9412795581        1.4370595411        0.9729249069
 H          2.0363810608        1.7019789459        1.5313194226
 N          4.0766312746        1.8753796563        1.7279754772
 H          4.9636355916        1.6167913197        1.3107711920
 C          4.0425868455        1.9414328183        3.1296282939
 O          3.1028225321        1.1998011333        3.8067126443
 C          5.3593417030        2.1542564251        3.8060012858
 H          5.8622627368        3.0217341761        3.3852159007
 H          6.0242788312        1.2858968593        3.6991687781
 H          5.1884312559        2.3178792227        4.8660771616
 C          2.9062468604       -0.0743232237        0.6650077602
 H          3.8248225509       -0.3547241561        0.1274657025
 O          2.8220052222       -0.7879411050        1.8763281028
 H          2.4133141917       -1.6542780122        1.7125122100
 C          1.7020378138       -0.4098513104       -0.2281255232
 H          0.7950121042       -0.2699322091        0.3650406432
 O          1.8961847081       -1.7730667915       -0.6104226306
 C          0.2750380768        0.3662135414       -2.1967283058
 H          0.2841212086       -0.5475397128       -2.7888509750
 H          0.1332077318        1.2400719375       -2.8393518799
 O         -0.8388890315        0.2223576069       -1.3270907975
 C          0.8524073165       -2.6813090097       -0.5775395722
 H          1.3532243060       -3.6649314740       -0.6400633651
 C         -0.9721895729       -3.4776251862       -1.8639314659
 H         -0.5338432384       -4.4875270727       -1.8833845700
 O          0.0371199799       -2.5013035162       -1.7164798921
 C          0.0224150070       -2.6584394182        0.7176320419
 H         -0.4043322980       -1.6591582706        0.8846735927
 O          0.8954614161       -2.9923186291        1.7736825431
 H          0.3536375687       -3.1620933686        2.5558760024
 C         -1.1559988733       -3.6411473305        0.6250035024
 H         -0.7813355678       -4.6704198358        0.6431128730
 O         -1.9862155278       -3.4953171440        1.7487373622
 H         -2.5591959777       -2.7331269349        1.5783897517
 C         -1.9395003538       -3.3778112934       -0.6759066099
 H         -2.7397660439       -4.1224416574       -0.7574805710
 O         -2.5601449053       -2.1167045735       -0.6259232791
 H         -1.9039978647       -1.4432900434       -0.8832804401
 C         -1.6653791631       -3.1785790507       -3.2071866210
 H         -0.9541295945       -3.3617697359       -4.0143787290
 H         -1.9424112250       -2.1172425575       -3.2194158415
 O         -2.7690739752       -4.0035136459       -3.4516101622
 H         -3.4870472104       -3.7465959537       -2.8617389351
 C         -1.2451921630        1.3900824985       -0.6918055780
 H         -0.3785259747        1.9735191413       -0.3359896315
 C         -2.4003084770        3.4049694258       -1.0816800885
 H         -1.5310231160        3.9243683314       -0.6482121842
 O         -1.9818647491        2.1608146301       -1.6178687747
 C         -2.1190777281        1.0127026760        0.5139310088
 H         -2.9276950884        0.3484178722        0.1671461181
 O         -1.3262478995        0.3358505421        1.4581948565
 H         -1.7556584973        0.4373594619        2.3197097350
 C         -2.7345288314        2.2812613729        1.1325682966
 H         -1.9385940615        2.8633445442        1.6118849608
 O         -3.6407877788        1.9257237927        2.1442400867
 H         -4.4944083252        1.7578973854        1.7184550911
 C         -3.4187572167        3.1158907156        0.0337639174
 H         -3.8062799204        4.0437465468        0.4662935906
 O         -4.5272045386        2.4087393404       -0.4674934858
 H         -4.2005432950        1.8251705399       -1.1678993774
 C         -3.0003038012        4.2331435655       -2.2086883607
 H         -3.9172593085        3.7727313144       -2.5660592277
 H         -2.2940019087        4.2924466273       -3.0309785260
 H         -3.2219577308        5.2334101803       -1.8493490213
 H          2.8725455181        0.4032716158        3.2938324473
  72
  -125.09397052000000        5.0819078743315985E-004 !
 C          3.4741235556        1.8152503622       -0.6260174557
 H          4.2012857829        2.6373906605       -0.6161452957
 O          4.0844698404        0.7971364878       -1.3518100401
 H          3.4229562327        0.1117564615       -1.5445242291
 C          1.0929953397        1.7006175325       -1.0436323474
 H          0.6446358972        1.5680929195       -2.0372609971
 O          2.3414769738        2.3434810008       -1.2615729444
 C          3.1834322611        1.3770317432        0.8233753468
 H          2.8609929374        2.2501676020        1.4025481572
 N          4.4372800638        0.9033189484        1.3726882035
 H          4.9597546077        0.3608075215        0.6949750796
 C          4.5528438638        0.4229020328        2.6729437598
 O          3.4835482604        0.7805051283        3.5103133635
 C          5.1877346806       -0.9155005860        2.9053286559
 H          6.1073863709       -0.9861412974        2.3301965995
 H          4.5338957628       -1.7454940151        2.6045007534
 H          5.4307679924       -1.0430341917        3.9598589933
 C          2.0546046787        0.3120196032        0.8734929797
 H          2.5294825751       -0.6801739904        0.9399913254
 O          1.1967306395        0.5155406853        1.9698011555
 H          1.7650235841        0.6233516550        2.7511958868
 C          1.1877999037        0.3158982860       -0.3978035237
 H          0.1740083666        0.0123847307       -0.1247042360
 O          1.7130527380       -0.5902717699       -1.3719105248
 C          0.2201785603        2.6544985695       -0.1988250636
 H          0.0386684189        3.5650912756       -0.7825973179
 H          0.7585425584        2.9177736936        0.7130967349
 O         -0.9899056247        2.1012593849        0.2616552468
 C          1.0786454881       -1.8126362971       -1.5090916818
 H          1.6601705063       -2.3330297381       -2.2911581793
 C         -0.9025722694       -2.7824564727       -2.3317685273
 H         -0.3340522632       -3.2749051129       -3.1396715002
 O         -0.2411454730       -1.5947660375       -1.9496891824
 C          1.0626770578       -2.6901240572       -0.2457889612
 H          0.4628827854       -2.1906593409        0.5314879903
 O          2.3759243426       -2.8977610124        0.2083205557
 H          2.3664164621       -3.7232394290        0.7143636422
 C          0.3980336448       -4.0340849335       -0.5915376702
 H          1.0169503101       -4.5574639488       -1.3300395582
 O          0.3553371699       -4.8545808527        0.5451274387
 H         -0.4078794672       -4.5689460552        1.0675048287
 C         -1.0054288240       -3.7740481693       -1.1571269692
 H         -1.4265920334       -4.7204516758       -1.5372533950
 O         -1.7884186670       -3.2977265713       -0.0917036999
 H         -2.5481768979       -2.8264198813       -0.4859923022
 C         -2.2820056669       -2.3787476149       -2.8794599246
 H         -2.7849295800       -3.2690822891       -3.2664987878
 H         -2.1300939403       -1.6684447721       -3.6999721815
 O         -3.1278765513       -1.8374507544       -1.8996967151
 H         -2.7567795759       -0.9895498017       -1.5952050755
 C         -1.9897661766        1.8023847718       -0.6944071981
 H         -1.5846029309        1.8067156370       -1.7119026174
 C         -3.0878468328        0.2341066091        0.7737697031
 H         -3.8792111018       -0.4813395663        0.5171762780
 O         -2.4595713980        0.5085772623       -0.4934220328
 C         -3.1119081293        2.8629707337       -0.6295120797
 H         -2.7004419292        3.7618816787       -0.1396908650
 O         -3.4941752855        3.1686846967       -1.9459179200
 H         -4.3008645474        3.6979958674       -1.9053715774
 C         -4.2991354911        2.3502296385        0.2087878250
 H         -4.9520281833        1.7513724024       -0.4362720312
 O         -5.0687732654        3.4205010627        0.6917827645
 H         -4.6439192094        3.7320602569        1.5037579799
 C         -3.7666874180        1.4827900948        1.3643207325
 H         -4.6154289037        1.1631636344        1.9809541742
 O         -2.9607233941        2.2534277910        2.2177804854
 H         -2.0716374852        2.3097432114        1.8330098506
 C         -2.1134031321       -0.4194266303        1.7506624263
 H         -1.2273618214        0.1939885252        1.8936049540
 H         -1.8121151369       -1.3895826896        1.3655467288
 H         -2.6074173288       -0.5566564375        2.7086099615
 H          3.7550556810        0.6185939217        4.4191670475
  72
  -125.09392180000000        4.8265479607726672E-004 !
 C          3.0272579838        2.4685492333        0.6959729506
 H          3.7296830458        3.1740839574        1.1627797275
 O          2.7039513048        2.8608268746       -0.6029312710
 H          2.3770136970        3.7680373784       -0.5878931512
 C          0.8653226649        1.6041126774        1.1428042763
 H          0.4437618251        1.9156500782        0.1770550932
 O          1.9058628140        2.4786695465        1.5441220739
 C          3.6794289808        1.0738550158        0.6306135814
 H          3.9616017123        0.7775956889        1.6465731665
 N          4.8682778655        1.1502370124       -0.1609565546
 H          4.7039447153        1.3840691884       -1.1328077508
 C          5.9982974451        0.3672490743        0.1186207966
 O          5.8352507088       -0.7940403531        0.8392978931
 C          7.0760058755        0.3787476472       -0.9173580530
 H          6.7604690617       -0.1079899060       -1.8506612135
 H          7.9375337349       -0.1591952061       -0.5327929044
 H          7.3652086373        1.4015005238       -1.1470465286
 C          2.6144543795        0.0917132193        0.0985230663
 H          2.3431925687        0.4002134205       -0.9231480780
 O          3.1584896276       -1.2109524295        0.0849734530
 H          2.4273528859       -1.8583436208        0.0317758018
 C          1.3569204293        0.1574457425        0.9806470804
 H          1.5996263903       -0.2658106808        1.9671128112
 O          0.2812107872       -0.5586886575        0.3981241179
 C         -0.2049355457        1.7293947161        2.2374838497
 H         -0.3835407289        2.8001974138        2.4046835952
 H          0.1779338255        1.2884984122        3.1609665326
 O         -1.4198539364        1.0642598294        1.9784912054
 C          0.1429700609       -1.9188883352        0.7159159758
 H          0.5746296785       -2.1385332676        1.7035400831
 C          0.3917808764       -2.8538630151       -1.5201316988
 H          0.4576417899       -3.9281281272       -1.7298743930
 O          0.8644089471       -2.7310880708       -0.1669027699
 C         -1.3595638739       -2.2295115426        0.7938482368
 H         -1.8571562833       -1.2653408510        0.9785229881
 O         -1.5567949617       -3.0900159548        1.8891096198
 H         -2.4781550707       -3.3776025954        1.8785120964
 C         -1.9151198585       -2.8334407424       -0.5124281720
 H         -1.8801448259       -3.9270334109       -0.4296065668
 O         -3.2581347634       -2.4761419480       -0.6884051215
 H         -3.2864937521       -1.5896623879       -1.0948093951
 C         -1.0620653720       -2.3909975510       -1.7108114883
 H         -1.4525783900       -2.8731404432       -2.6146855511
 O         -1.2032132005       -1.0189077165       -1.9533200586
 H         -0.9165402779       -0.5011619105       -1.1820381108
 C          1.3093331055       -2.1101707751       -2.5115257677
 H          1.3124653073       -1.0402825279       -2.2719343028
 H          0.8815971324       -2.2323041652       -3.5096486881
 O          2.6062492921       -2.6306772916       -2.5757385908
 H          3.0876066436       -2.4085537861       -1.7669349166
 C         -2.2887741786        1.6851649967        1.0888453526
 H         -2.3413317817        2.7771616633        1.3041079132
 C         -2.7312904487        2.1042059727       -1.1817593865
 H         -2.7948870340        3.1833545355       -0.9499577957
 O         -1.8689150675        1.4942441420       -0.2350759239
 C         -3.6803599660        1.0695665374        1.3202722363
 H         -3.6191906222       -0.0083309790        1.1072910832
 O         -4.1248843341        1.2907995013        2.6344300648
 H         -3.4255815919        1.0009314007        3.2330172475
 C         -4.6812478973        1.7068969722        0.3538116761
 H         -4.7746041247        2.7765101400        0.5994115409
 O         -5.9349143105        1.0765722378        0.4321941668
 H         -6.1716736086        1.0181936495        1.3657882503
 C         -4.1595542259        1.5410029502       -1.0821535129
 H         -4.8103072094        2.1163919883       -1.7591744327
 O         -4.1774748224        0.1843888615       -1.4430758454
 H         -5.0489586030       -0.1536694688       -1.1898562351
 C         -2.1361730323        1.8954446403       -2.5652799991
 H         -1.1260833089        2.2926245529       -2.5922750719
 H         -2.7452758220        2.4057377809       -3.3048622946
 H         -2.1054319092        0.8334883215       -2.7851544439
 H          4.9376715850       -1.1465608645        0.7125125086
  72
  -125.09386959000000        4.5671215630116219E-004 !
 C          3.1316437290        2.3443776517        0.8484307129
 H          3.9084968227        2.7759725423        1.4927220028
 O          3.1230428801        3.0481152610       -0.3375733471
 H          2.9986260850        2.4086653428       -1.0644696830
 C          0.8273793502        1.8363512712        1.1103199905
 H          0.7062918911        2.0042761017        0.0322032725
 O          1.9454741487        2.5450116976        1.6041909818
 C          3.3772532676        0.8238120839        0.6152049303
 H          4.4314346734        0.5986632597        0.7981086010
 N          3.0736114794        0.4897304973       -0.7712121992
 H          2.0755146612        0.3278312443       -0.8853778710
 C          3.8311283531       -0.5403664132       -1.3640017519
 O          3.1136036489       -1.4808052579       -2.0903870513
 C          5.1767472083       -0.2118580848       -1.9162648726
 H          5.7817616582       -1.1137444960       -1.9859229139
 H          5.6731058662        0.5067896413       -1.2709303218
 H          5.1060728596        0.2185443006       -2.9217440912
 C          2.5064715765        0.0151668181        1.6003644900
 H          2.6903580851       -1.0524195640        1.4408626987
 O          2.8423289538        0.2690266720        2.9364684298
 H          2.6627436158        1.2034306823        3.1145675260
 C          1.0078491996        0.3189571244        1.3468878860
 H          0.4512429755        0.0091774595        2.2422256163
 O          0.4746409931       -0.3560885438        0.2131813420
 C         -0.4147484696        2.3755117194        1.8145072679
 H         -0.4995670129        3.4520567906        1.6330462260
 H         -0.3337773013        2.2124389753        2.9000463595
 O         -1.5246357027        1.6809743226        1.2937672648
 C          0.2582193074       -1.7155905349        0.3501422719
 H         -0.0036299556       -1.9767442564        1.3927217070
 C          1.3973437286       -3.7891842631        0.0226921758
 H          1.1148866948       -4.1103654940        1.0380554874
 O          1.4586637033       -2.3735351754       -0.0142127266
 C         -0.8891476079       -2.1436263462       -0.5728487936
 H         -0.6687478282       -1.7840040543       -1.5895406203
 O         -2.0882715133       -1.5827202402       -0.1012311091
 H         -2.8076721048       -2.0888051046       -0.5106196180
 C         -1.0171002504       -3.6785322484       -0.5955648388
 H         -1.3361306564       -4.0203570226        0.3961907034
 O         -2.0280229352       -4.0519928867       -1.4893041791
 H         -1.6462207460       -4.0255241644       -2.3785075791
 C          0.3344680883       -4.3031169724       -0.9635922900
 H          0.2695700546       -5.3996445922       -0.8733473567
 O          0.5961406585       -3.9336209617       -2.2920639286
 H          1.5274767267       -4.1577721467       -2.4772311103
 C          2.8067633098       -4.3352757241       -0.2820944116
 H          2.8099339084       -5.4062422297       -0.0625693857
 H          3.5174045427       -3.8349724739        0.3863007385
 O          3.1954092903       -4.2072905269       -1.6214759685
 H          3.3877343993       -3.2672364124       -1.8199431281
 C         -2.7703167321        2.1582671673        1.7312682538
 H         -2.7854242598        2.1849517024        2.8400749124
 C         -3.3173518846        3.7458181582       -0.0028241658
 H         -3.7432277869        4.7557130665        0.0307535631
 O         -3.0449533233        3.4726888093        1.3747845501
 C         -3.8106764437        1.1400248439        1.2321425730
 H         -3.3867661420        0.1362491638        1.4069193271
 O         -5.0480525364        1.2829322378        1.8798437592
 H         -4.9082867826        1.3687370906        2.8298660455
 C         -4.0643052857        1.3192602753       -0.2683952729
 H         -4.9502771280        0.7120305022       -0.5222272430
 O         -2.9805344022        0.9338866347       -1.0740203259
 H         -2.5071443235        0.2035715128       -0.6444887032
 C         -4.4044999241        2.7928384872       -0.5550539513
 H         -5.3492371831        3.0193456063       -0.0487320705
 O         -4.6169988732        2.9885935983       -1.9256279383
 H         -3.9184349641        2.5007608572       -2.3821953985
 C         -2.0560252256        3.7813851500       -0.8651796420
 H         -2.3144605074        4.1598406868       -1.8507791865
 H         -1.6258181841        2.7888468958       -0.9584163593
 H         -1.3286868796        4.4537819999       -0.4162640907
 H          2.2503763429       -1.6040088669       -1.6619329172
  72
  -125.09386757999999        4.5574177485235064E-004 !
 C          3.0440911598        2.4024739133        0.7355173541
 H          3.7673557952        3.0628408647        1.2412645211
 O          2.7235731671        2.8917600486       -0.5315126542
 H          2.3439850629        3.7740494493       -0.4419859520
 C          0.8724204227        1.5524386949        1.1729181397
 H          0.4666785669        1.8887230695        0.2089604400
 O          1.9336426433        2.3931078155        1.5954741073
 C          3.6572611729        1.0019330396        0.5738135061
 H          4.0005174145        0.6609587317        1.5591726411
 N          4.7639506278        1.0026938611       -0.3491787675
 H          4.7876257471        1.8016760694       -0.9630772544
 C          6.0209751302        0.5453774011        0.0989455533
 O          6.0000807440       -0.7371832613        0.6140182468
 C          7.2073771363        0.8938306343       -0.7417912781
 H          7.1295497939        0.4879763455       -1.7580940829
 H          8.0954019093        0.4730893686       -0.2789209249
 H          7.3192144835        1.9742036164       -0.8118642547
 C          2.5732138160        0.0234435449        0.0891004716
 H          2.2819821945        0.3114926065       -0.9321273271
 O          3.1389947403       -1.2682777354        0.0962907454
 H          2.4175308776       -1.9250862993        0.0363228565
 C          1.3347157696        0.0985872829        0.9961793853
 H          1.5910931909       -0.3304249223        1.9768234522
 O          0.2387156860       -0.5997912410        0.4331211716
 C         -0.2016773894        1.6896196786        2.2624838286
 H         -0.3606527686        2.7622622017        2.4390890031
 H          0.1672897746        1.2324391325        3.1837045471
 O         -1.4276553600        1.0511891302        1.9911273736
 C          0.1041974080       -1.9652918795        0.7328965741
 H          0.5370373593       -2.1941827991        1.7180536958
 C          0.3452523788       -2.9000734616       -1.5057886519
 H          0.3849610007       -3.9785757227       -1.7009345250
 O          0.8260623288       -2.7668452435       -0.1567965729
 C         -1.3991859182       -2.2734249457        0.8097422573
 H         -1.8919923875       -1.3119778366        1.0212031658
 O         -1.5935602242       -3.1600775810        1.8845559375
 H         -2.5176062880       -3.4388045785        1.8767020229
 C         -1.9659776382       -2.8417931919       -0.5083863093
 H         -1.9616332353       -3.9371515119       -0.4411531632
 O         -3.2977911909       -2.4441982235       -0.6845949238
 H         -3.2989622968       -1.5579563423       -1.0928716971
 C         -1.0978779506       -2.4075248607       -1.6991683377
 H         -1.4936193421       -2.8763095414       -2.6078315891
 O         -1.2119485615       -1.0314792165       -1.9330699332
 H         -0.9162352011       -0.5253806159       -1.1571042646
 C          1.2765357770       -2.1921467958       -2.5116835826
 H          1.2861846056       -1.1158147335       -2.3047227412
 H          0.8524873640       -2.3419601714       -3.5079620872
 O          2.5690542430       -2.7246752119       -2.5512578078
 H          3.0637287735       -2.4426144289       -1.7695059548
 C         -2.2750928930        1.6905833774        1.0937035559
 H         -2.3124546545        2.7824846933        1.3139761326
 C         -2.6854832228        2.1218007091       -1.1817481088
 H         -2.7346609881        3.2021074569       -0.9512819320
 O         -1.8426128359        1.4991526703       -0.2257809321
 C         -3.6785273245        1.0959060310        1.3066395144
 H         -3.6307497866        0.0182143724        1.0892761738
 O         -4.1343303932        1.3185666988        2.6168713612
 H         -3.4463145662        1.0150356966        3.2216859830
 C         -4.6581809763        1.7532061159        0.3320220404
 H         -4.7353405285        2.8237415255        0.5795814991
 O         -5.9236047441        1.1451879003        0.3955911394
 H         -6.1693301419        1.0851832295        1.3268007365
 C         -4.1239043434        1.5820125065       -1.0985878028
 H         -4.7576581003        2.1699225268       -1.7810784841
 O         -4.1607716937        0.2270142540       -1.4631292428
 H         -5.0399059988       -0.0977860072       -1.2190961098
 C         -2.0784443022        1.9015581482       -2.5583148122
 H         -1.0626043119        2.2843136591       -2.5757402878
 H         -2.6726007769        2.4181009657       -3.3056957542
 H         -2.0603447235        0.8385238753       -2.7745640516
 H          5.1128355210       -1.1087672407        0.4880437704
  72
  -125.09380589000000        4.2694121165644532E-004 !
 C          3.0115677870        2.3992051765        0.7908227555
 H          3.7416886012        3.0479930458        1.3015373779
 O          2.6593643724        2.9280837041       -0.4519537610
 H          2.2759251547        3.8039013766       -0.3239506578
 C          0.8581030836        1.5213014701        1.2365302182
 H          0.4551520521        1.8748484556        0.2778963662
 O          1.9197823284        2.3539425148        1.6732956767
 C          3.6326390467        1.0098868853        0.5682508354
 H          4.0181651816        0.6480784063        1.5301986143
 N          4.7019054053        1.0504693093       -0.3966141202
 H          4.6870042905        1.8625451443       -0.9933124201
 C          5.9832575283        0.6012752875       -0.0148625351
 O          6.0029263596       -0.6933960265        0.4693369005
 C          7.1244014855        0.9851986104       -0.9018617310
 H          7.2176515217        2.0682826764       -0.9534816330
 H          7.0045716440        0.5999983108       -1.9220258623
 H          8.0389992392        0.5680593392       -0.4904635918
 C          2.5469129558        0.0249049457        0.0991407261
 H          2.2272210698        0.3196568952       -0.9119310170
 O          3.1277793359       -1.2597260289        0.0790577955
 H          2.4112980661       -1.9226028598        0.0262016268
 C          1.3278110603        0.0738135054        1.0335373998
 H          1.6082796976       -0.3644387472        2.0033575748
 O          0.2279451336       -0.6282420285        0.4829067727
 C         -0.2226832503        1.6349028235        2.3216734181
 H         -0.3752363183        2.7031791192        2.5285510987
 H          0.1317411566        1.1466800292        3.2324261905
 O         -1.4513608662        1.0153410214        2.0178161393
 C          0.1060097830       -1.9969565777        0.7729731234
 H          0.5473248399       -2.2292893955        1.7536028414
 C          0.3300243508       -2.9332195080       -1.4674336986
 H          0.3373185285       -4.0156116392       -1.6455957553
 O          0.8282156029       -2.7864696365       -0.1261902843
 C         -1.3944482206       -2.3149475541        0.8584422582
 H         -1.8858462258       -1.3668648315        1.1261651605
 O         -1.5644558876       -3.2546074633        1.8917616814
 H         -2.4920488903       -3.5204573536        1.9044146123
 C         -1.9852148896       -2.8191527910       -0.4771398499
 H         -2.0341100779       -3.9149884326       -0.4355953245
 O         -3.2945770307       -2.3508817685       -0.6467357472
 H         -3.2520196126       -1.4758959554       -1.0780004413
 C         -1.0992902501       -2.4038792711       -1.6619734668
 H         -1.5026455629       -2.8611357197       -2.5734184677
 O         -1.1789514355       -1.0253087159       -1.8938182683
 H         -0.8824499410       -0.5288304692       -1.1114033569
 C          1.2749937468       -2.2673301747       -2.4891203810
 H          1.3198146188       -1.1893096164       -2.2965769306
 H          0.8414573098       -2.4168241738       -3.4812343680
 O          2.5503010176       -2.8399628345       -2.5278150046
 H          3.0575573802       -2.5594878317       -1.7542385738
 C         -2.2691909321        1.6768710481        1.1087153799
 H         -2.3062289349        2.7646499990        1.3489427660
 C         -2.6033783224        2.1573683537       -1.1707916638
 H         -2.6458439073        3.2342616719       -0.9236411019
 O         -1.7988528150        1.5072653340       -0.2006189819
 C         -3.6820574793        1.0877253499        1.2645989254
 H         -3.6350459669        0.0152277752        1.0231307655
 O         -4.1786315636        1.2839882128        2.5645230127
 H         -3.5125189578        0.9628570499        3.1844152372
 C         -4.6250618768        1.7772089633        0.2756650288
 H         -4.6995106130        2.8423499473        0.5466805380
 O         -5.8976996370        1.1813234826        0.2858858216
 H         -6.1707924282        1.0979380188        1.2075723006
 C         -4.0502465032        1.6351077039       -1.1425902315
 H         -4.6562327298        2.2487091798       -1.8278340679
 O         -4.0928365872        0.2909619743       -1.5433096201
 H         -4.9809629206       -0.0306025831       -1.3295506070
 C         -1.9540026378        1.9498023057       -2.5299621799
 H         -0.9353917167        2.3252690754       -2.5099187476
 H         -2.5200698738        2.4792132669       -3.2899999901
 H         -1.9372181167        0.8889464597       -2.7574049192
 H          5.1148010224       -1.0730661026        0.3790419418
  72
  -125.09373479000000        3.9599780681833012E-004 !
 C          3.1662251469        2.3719445754        1.4057123230
 H          4.0379339966        2.5919560953        2.0432631807
 O          2.9648155256        3.4090402603        0.4935786263
 H          2.8036902118        4.2231224327        0.9847541679
 C          0.9568864764        1.6249868209        1.7836421813
 H          0.7271086935        2.0164815797        0.7852900040
 O          2.0913654069        2.2906531036        2.3204496027
 C          3.3943656108        1.0415398577        0.6522906714
 H          4.4772610774        0.8561391912        0.5803154192
 N          2.7782241764        1.0553676869       -0.6503363088
 H          2.6727114260        1.9983181294       -1.0052842608
 C          3.2872555466        0.1719462053       -1.6382581980
 O          3.9999769977       -0.8981677981       -1.1520272579
 C          2.3803525305       -0.0606701381       -2.8061368540
 H          1.5402209879       -0.7147354432       -2.5411231154
 H          2.9363798516       -0.5333261663       -3.6140001849
 H          1.9780161474        0.8847668674       -3.1622065288
 C          2.7747922192       -0.0980508436        1.4946284901
 H          2.9646675977       -1.0438874045        0.9831715043
 O          3.3608176334       -0.2043246774        2.7665419678
 H          3.1740526703        0.6097319179        3.2523507828
 C          1.2504050001        0.1213267712        1.6170739725
 H          0.9033231460       -0.4384922614        2.5008433170
 O          0.5218125135       -0.2929550347        0.4807967464
 C         -0.2136487399        1.9024566446        2.7377734394
 H         -0.2992027942        2.9874717868        2.8827126002
 H         -0.0113004130        1.4357962718        3.7048998236
 O         -1.4455610965        1.3639590822        2.3107096557
 C          0.2862873932       -1.6422828239        0.3280565362
 H          0.0393508577       -2.1216831955        1.3022409367
 C          1.1936729358       -3.6513634011       -0.5057380637
 H          0.9808832181       -4.1908394927        0.4339944757
 O          1.3992655147       -2.2849462406       -0.2351429432
 C         -0.9290845395       -1.7354251289       -0.6066124833
 H         -0.6534415105       -1.2407520102       -1.5503025537
 O         -2.0293924743       -1.0876632294       -0.0176292759
 H         -1.6745574346       -0.2459199609        0.3360488537
 C         -1.2614183898       -3.2001810148       -0.8812721734
 H         -1.5650243181       -3.6828930118        0.0599623888
 O         -2.2766651746       -3.3258908964       -1.8493149882
 H         -3.0055625349       -2.7493275990       -1.5903478363
 C         -0.0067641983       -3.8879006220       -1.4442520668
 H         -0.1963396136       -4.9718299453       -1.5023486972
 O          0.2678308268       -3.3886614374       -2.7308779918
 H         -0.5812659565       -3.3407110514       -3.1934553525
 C          2.5083011044       -4.1782117313       -1.1056933679
 H          2.3560082514       -5.2226995256       -1.4142595489
 H          3.2898962312       -4.1390013701       -0.3438682402
 O          2.9605613594       -3.3989822265       -2.1737626288
 H          2.2020205559       -3.2329782603       -2.7548899390
 C         -2.1095386383        2.0633241313        1.3171314799
 H         -1.9800176931        3.1570452259        1.4410313356
 C         -2.1791482704        2.2693037805       -1.0615354054
 H         -2.1160491105        3.3638268061       -0.9483618772
 O         -1.5804582926        1.6608458752        0.0720628041
 C         -3.6072255897        1.7332596105        1.4059050343
 H         -3.7100590379        0.6367213270        1.4465702417
 O         -4.1136548627        2.3153311969        2.5769441751
 H         -5.0776156922        2.2519605934        2.5328489538
 C         -4.3633496159        2.2817848592        0.1770773949
 H         -4.4065286043        3.3744744315        0.2641195082
 O         -5.6890753619        1.8179609822        0.1913256477
 H         -5.6969205361        0.9839796182       -0.3039590737
 C         -3.6666595054        1.8848377260       -1.1396430931
 H         -4.1417705464        2.4258138734       -1.9665901775
 O         -3.8830009235        0.5235657184       -1.4049487110
 H         -3.2483772566       -0.0173541211       -0.8953133903
 C         -1.3974328582        1.8153205819       -2.2878891010
 H         -0.3374378784        1.8047498313       -2.0510845151
 H         -1.5835787168        2.4888432308       -3.1188741021
 H         -1.7029989133        0.8126513958       -2.5737861421
 H          3.6335952500       -1.7353078718       -1.4914653448
  72
  -125.09370190000000        3.8245256961268349E-004 !
 C          3.1155392324        2.3500939171        0.9398049691
 H          3.9254283850        2.7141332262        1.5845649945
 O          3.0447978177        3.1784980221       -0.1594208076
 H          2.8432713205        2.6248131020       -0.9380189361
 C          0.8489354104        1.7603711081        1.2679268307
 H          0.7124748373        1.9806276728        0.2008083386
 O          1.9662006669        2.4605980275        1.7722392568
 C          3.3464063777        0.8657828588        0.5270385284
 H          4.4155531563        0.6509386109        0.5745713211
 N          2.8957786274        0.6759252018       -0.8570113572
 H          1.8977822650        0.4861215739       -0.8886995230
 C          3.5790601284       -0.1648055206       -1.7354145532
 O          2.9488215022       -1.3336795207       -2.1420173910
 C          5.0643939053       -0.1653844308       -1.8013130222
 H          5.4379364655        0.8514365791       -1.7133263367
 H          5.3744133515       -0.5780625873       -2.7592050363
 H          5.5268848591       -0.7795396662       -1.0162069704
 C          2.5894282898       -0.0496426505        1.5098704087
 H          2.7690252971       -1.0959737059        1.2423390590
 O          3.0532064473        0.0945042865        2.8249259251
 H          2.8657029331        0.9998845995        3.1100548349
 C          1.0686665034        0.2397005808        1.4284124096
 H          0.6140877232       -0.1103100536        2.3659109968
 O          0.4301069511       -0.4004700371        0.3325543761
 C         -0.4013528524        2.2412834294        1.9979157916
 H         -0.4881514381        3.3277005621        1.8912586901
 H         -0.3397332497        1.9973098480        3.0677515644
 O         -1.5083645766        1.5895188117        1.4090206319
 C          0.2468425421       -1.7716081557        0.4429011518
 H          0.1129537933       -2.0715814570        1.4985660512
 C          1.3380717770       -3.8073084265       -0.1422555296
 H          1.1379576726       -4.2035943788        0.8659388918
 O          1.4057322127       -2.3922817747       -0.0786304367
 C         -1.0170504050       -2.1551741550       -0.3345134931
 H         -0.9757708881       -1.6706702946       -1.3215238142
 O         -2.1091190141       -1.6845774517        0.4104846668
 H         -2.9096901871       -1.9484742257       -0.0635101737
 C         -1.1267009395       -3.6817726817       -0.5250019996
 H         -1.3553766229       -4.1389995216        0.4445375650
 O         -2.2015757206       -3.9837241200       -1.3690856641
 H         -1.9034798513       -3.8249346960       -2.2760568962
 C          0.1943537427       -4.2365681298       -1.0751347096
 H          0.1476964297       -5.3377122857       -1.0960096285
 O          0.3375013467       -3.7253548064       -2.3747089963
 H          1.2462498781       -3.9236350159       -2.6655196356
 C          2.7118857515       -4.3319504230       -0.6035802386
 H          2.7173268128       -5.4183644627       -0.4810006419
 H          3.4796036342       -3.8998072979        0.0493400033
 O          2.9974575686       -4.0863003599       -1.9524153020
 H          3.1987613110       -3.1372014742       -2.0772700740
 C         -2.7592545411        2.1419441544        1.7502057686
 H         -2.8432503754        2.2128276197        2.8515550970
 C         -3.0718665814        3.6854463575       -0.0813122026
 H         -3.4660262215        4.7077450683       -0.1156655251
 O         -2.9290875679        3.4522026042        1.3236764990
 C         -3.8218183792        1.1600152696        1.2172216246
 H         -3.4884089133        0.1435263167        1.4831517383
 O         -5.0959362456        1.4330519255        1.7375435409
 H         -5.0478336880        1.4928661537        2.6984936525
 C         -3.9140844383        1.2718525916       -0.3060132270
 H         -4.7960417425        0.7083518121       -0.6405112863
 O         -2.7984612467        0.7238553670       -0.9669336235
 H         -2.0728852135        0.6395813394       -0.3314190612
 C         -4.1330797018        2.7467443049       -0.7035740655
 H         -5.1172429937        3.0457517308       -0.3266122902
 O         -4.1677209057        2.8644612044       -2.0997744755
 H         -3.5060876395        2.2479800544       -2.4450703735
 C         -1.7417812312        3.6693221691       -0.8365026084
 H         -1.9118285637        4.0426180050       -1.8431066210
 H         -1.3252883835        2.6684071581       -0.8935945985
 H         -1.0324644261        4.3254688026       -0.3375931181
 H          2.1312530437       -1.4679085107       -1.6315064534
  72
  -125.09356320000001        3.3024441111281002E-004 !
 C          3.2776334449        2.4202619286        0.2406696698
 H          3.9630750695        3.1580536398        0.6801530326
 O          3.0980078869        2.6390903096       -1.1225525776
 H          2.8442525787        3.5581347225       -1.2688705335
 C          1.0563188588        1.6887038670        0.5589949371
 H          0.8136638404        1.8493952346       -0.5031802108
 O          2.0750484076        2.5815536229        0.9615573718
 C          3.8485390991        1.0094866138        0.4397745466
 H          4.0075971567        0.8520078847        1.5094330052
 N          5.1380916065        0.8968240800       -0.2292603418
 H          5.0070339934        0.8288700037       -1.2325766140
 C          6.0908256040       -0.0103050915        0.2337151513
 O          6.1624662459       -1.2527509907       -0.3529241424
 C          6.6072579441        0.1288164065        1.6240106720
 H          6.6549241719        1.1797031370        1.8939509622
 H          7.6025630256       -0.3070294206        1.6822906592
 H          5.9799488677       -0.3991365627        2.3537032733
 C          2.8047011914       -0.0047929969       -0.0663330444
 H          2.6146609123        0.1917394281       -1.1349841539
 O          3.3304070757       -1.2989559185        0.1016336956
 H          2.6388018972       -1.9544493178       -0.0951451023
 C          1.4919243261        0.2191662402        0.7084314829
 H          1.6551341791       -0.0223841156        1.7679742906
 O          0.4159951410       -0.5532401301        0.2010092446
 C         -0.1746130300        2.0238622501        1.4006742249
 H         -0.3114351970        3.1120514712        1.3963454883
 H         -0.0219094266        1.6934679575        2.4358546361
 O         -1.3077045969        1.3829615199        0.8521472312
 C          0.2867844065       -1.8896312437        0.6090003068
 H          0.7543880245       -2.0381726484        1.5920662099
 C          0.3464593048       -3.1317611685       -1.4872579816
 H          1.0429775908       -3.8775847485       -1.8850831299
 O          0.9787426695       -2.7593636608       -0.2586732190
 C         -1.2029968508       -2.2336901743        0.7094666310
 H         -1.7772947586       -1.5531244815        0.0632033714
 O         -1.6275209135       -2.0776852924        2.0424603204
 H         -2.3684338798       -2.6927996654        2.1597772409
 C         -1.4185888243       -3.6819730890        0.2441894102
 H         -0.8005816538       -4.3510242298        0.8539883838
 O         -2.7545682676       -4.0476807689        0.4441854491
 H         -3.2373204703       -3.7853157449       -0.3583728380
 C         -1.0357207486       -3.7999995979       -1.2470975243
 H         -0.9748123388       -4.8647602751       -1.4997971833
 O         -2.0757172926       -3.3055064224       -2.0422589583
 H         -2.0597796794       -2.3324816828       -2.0490357998
 C          0.2961716856       -1.9872609939       -2.5224919815
 H          0.0027940726       -2.4195747667       -3.4821382287
 H          1.3095544102       -1.5751421647       -2.6188154988
 O         -0.6322572819       -0.9711952688       -2.2498374891
 H         -0.3594450654       -0.5228640061       -1.4292296050
 C         -2.5287116729        1.7647081696        1.4573832461
 H         -2.3850511538        1.7980227136        2.5515803197
 C         -3.8012152107        3.1689874035       -0.0243559487
 H         -4.8279756447        3.0839322819        0.3602045578
 O         -2.9000773988        3.0518141220        1.0834158924
 C         -3.5770877635        0.6950975489        1.1079783119
 H         -3.1583544112       -0.2789463707        1.3899138717
 O         -4.7820377702        0.9451261713        1.7899197123
 H         -4.6276303510        0.9063102855        2.7406234551
 C         -3.9068084246        0.6786540871       -0.4033956167
 H         -4.9840809612        0.4781476081       -0.4688454911
 O         -3.2222964822       -0.3432919387       -1.0719564061
 H         -2.5770074051        0.0849106558       -1.6659749962
 C         -3.5924624568        2.0488231737       -1.0533772779
 H         -4.2676738489        2.2157063127       -1.8986306071
 O         -2.3015054389        2.0430807940       -1.6042530502
 H         -1.6763628804        1.9302875492       -0.8637136108
 C         -3.5755562744        4.5436696711       -0.6384222626
 H         -4.3652818496        4.7647674711       -1.3500259059
 H         -2.6170106754        4.5644293311       -1.1506987120
 H         -3.5752641204        5.2938207113        0.1464982626
 H          5.2610980433       -1.5807381194       -0.5138136758
  72
  -125.09351368999999        3.1338792290074399E-004 !
 C          2.1789776265        2.3753161877        0.1800833240
 H          1.4395837506        3.1642098415        0.3771443447
 O          3.4158915822        2.9705693985        0.2905238931
 H          4.0883803919        2.2937175776        0.1331336658
 C          0.7889778793        1.3375887114       -1.4776463163
 H          0.9940400206        0.8154784381       -2.4225999827
 O          2.0469446948        1.8849875834       -1.1448422866
 C          2.0031655446        1.1984329929        1.1605439154
 H          2.1382248075        1.5588613617        2.1854077215
 N          3.0309458556        0.2252278299        0.8524452124
 H          3.0701381342        0.0653544272       -0.1519734468
 C          3.0301589572       -1.0157413889        1.5159201326
 O          3.6339581561       -2.0145111598        0.7500867669
 C          3.2644704841       -1.0540389303        2.9893182966
 H          4.3030641559       -0.8069673548        3.2505121060
 H          3.0460520542       -2.0504882743        3.3707608824
 H          2.6142997066       -0.3440739232        3.4911935713
 C          0.5693854946        0.6368365163        1.0099781481
 H          0.4964861308       -0.2738937271        1.6138197364
 O         -0.3889374699        1.5144232338        1.5282491800
 H         -0.5009250779        2.2376101370        0.8856834483
 C          0.3171354861        0.2621232060       -0.4673135971
 H         -0.7551762426        0.0883705946       -0.6085415096
 O          1.0482286406       -0.9338032256       -0.7115324366
 C         -0.2524788585        2.4274915166       -1.8212843796
 H         -0.9965375517        1.9991319379       -2.4963371657
 H          0.2825450035        3.2335483581       -2.3348878953
 O         -0.9070588063        3.0107483517       -0.6989019027
 C          0.4966655595       -1.8416584276       -1.6223823421
 H         -0.0233154486       -1.3193620739       -2.4384727325
 C         -0.0830968537       -3.6646784927       -0.1287028058
 H         -0.9791871820       -4.2934454554       -0.0722373378
 O         -0.4943309698       -2.6405777728       -1.0395266386
 C          1.6594924519       -2.6433807826       -2.2297011567
 H          2.5731019396       -2.3988601108       -1.6638727129
 O          1.8146113174       -2.2572072845       -3.5711027366
 H          2.3393693135       -2.9451219386       -4.0042829074
 C          1.3831371694       -4.1505575040       -2.1209033219
 H          0.5204000432       -4.3986557551       -2.7486045725
 O          2.4807660090       -4.8768904804       -2.6089257366
 H          3.0847244663       -5.0058778266       -1.8611050291
 C          1.1008253768       -4.5112968796       -0.6518827043
 H          0.8322778476       -5.5725986006       -0.6004211893
 O          2.2849278212       -4.4252060596        0.0977480095
 H          2.5723142368       -3.5000856052        0.2079497852
 C          0.1715865514       -3.0832088648        1.2709268223
 H          1.0430746814       -2.4115999745        1.2506543783
 H          0.3605640133       -3.8958491835        1.9749073536
 O         -0.9627416284       -2.3927764673        1.7261346408
 H         -1.2816134300       -1.8572442304        0.9876137330
 C         -2.2853977535        2.8090221360       -0.6144017959
 H         -2.7886757769        3.1265212628       -1.5475603489
 C         -3.7964643672        1.0350858795       -0.0339048578
 H         -4.5076847035        1.3674611043       -0.8069019942
 O         -2.4861384982        1.4312353855       -0.4073047506
 C         -2.7896836026        3.6990259985        0.5332458647
 H         -2.0517315367        3.6559472185        1.3508558881
 O         -2.8789264722        5.0061550811        0.0321483592
 H         -3.3112724233        5.5451260215        0.7081264846
 C         -4.1518414645        3.2357918968        1.0884469472
 H         -4.9381721945        3.5244371856        0.3811798201
 O         -4.4205702155        3.9049088915        2.2926520458
 H         -4.0078865462        3.3854263582        2.9997073584
 C         -4.1515102149        1.7110253423        1.2970900128
 H         -5.1480545741        1.3955223556        1.6263486170
 O         -3.2692625870        1.3659310285        2.3303430063
 H         -2.3572434814        1.3106667990        1.9901701535
 C         -3.8035472800       -0.4833329010        0.0873695065
 H         -3.3174940011       -0.9294103526       -0.7760300068
 H         -4.8277382399       -0.8392016820        0.1438388947
 H         -3.2784032950       -0.7814249094        0.9915950555
 H          4.4273499540       -2.3472738980        1.1911610104
  72
  -125.09349050000000        3.0579112018099138E-004 !
 C          3.4737138994        1.7291375439       -0.6739699264
 H          4.2102888048        2.5434094431       -0.6761393329
 O          4.0722184152        0.6936225076       -1.3831215257
 H          3.4029807872        0.0137375482       -1.5693051099
 C          1.0886621737        1.6450451399       -1.0776283233
 H          0.6303887970        1.5143102552       -2.0669849337
 O          2.3462481900        2.2631658311       -1.3136318448
 C          3.1741507676        1.3147088465        0.7797867684
 H          2.8370575396        2.1973530715        1.3377032992
 N          4.4135243108        0.8577676154        1.3625644647
 H          4.9566382592        0.3196300000        0.6959606938
 C          4.3912085676        0.2653487307        2.6418035169
 O          3.5028924264        0.8588427621        3.5308273734
 C          5.7049189858       -0.1849770123        3.1891563206
 H          5.5409064928       -0.8359903433        4.0465524953
 H          6.3311351814        0.6566059175        3.5174203736
 H          6.2541963935       -0.7372729185        2.4321403254
 C          2.0466609732        0.2485778981        0.8367698491
 H          2.5271672880       -0.7410685309        0.8982814051
 O          1.2041999416        0.4516989791        1.9436038634
 H          1.7733350252        0.5290494373        2.7264775172
 C          1.1678606268        0.2610773938       -0.4266221720
 H          0.1528438342       -0.0277290819       -0.1427517620
 O          1.6702591701       -0.6507324144       -1.4074811555
 C          0.2363789839        2.6169746891       -0.2316766679
 H          0.0627479068        3.5273742338       -0.8179986552
 H          0.7828974526        2.8772773150        0.6759390083
 O         -0.9772374719        2.0805177792        0.2388790365
 C          1.0256709672       -1.8691488261       -1.5324096283
 H          1.5895891072       -2.3932953005       -2.3244840853
 C         -0.9726003555       -2.8319076998       -2.3172218795
 H         -0.4184083887       -3.3308564132       -3.1308044222
 O         -0.3009340335       -1.6446737339       -1.9505561309
 C          1.0321177791       -2.7442024855       -0.2680632356
 H          0.4579531368       -2.2384019234        0.5244843729
 O          2.3579756530       -2.9551927546        0.1419251872
 H          2.3583856577       -3.7482181540        0.6969022725
 C          0.3481056454       -4.0847467166       -0.5911130129
 H          0.9490923710       -4.6195465544       -1.3360517173
 O          0.3158730866       -4.8972630979        0.5507976985
 H         -0.4276677605       -4.5938216912        1.0910534520
 C         -1.0627234938       -3.8164576185       -1.1357016075
 H         -1.4972055943       -4.7615136421       -1.5036378932
 O         -1.8250111367       -3.3272864348       -0.0608581728
 H         -2.5973154145       -2.8682622868       -0.4423151778
 C         -2.3564369825       -2.4217314587       -2.8467030050
 H         -2.8793203944       -3.3107917529       -3.2088396817
 H         -2.2108639755       -1.7272766768       -3.6824772138
 O         -3.1757091793       -1.8508537589       -1.8607234986
 H         -2.7643365341       -1.0241548885       -1.5502382666
 C         -1.9949455124        1.8138334345       -0.7068544619
 H         -1.5887017548        1.8067197986       -1.7253871973
 C         -3.1018700306        0.2685972592        0.7766600810
 H         -3.9169111232       -0.4265418703        0.5383746944
 O         -2.5016054252        0.5301010296       -0.5077513985
 C         -3.0971246274        2.9097568588       -0.6324398695
 H         -2.6546524382        3.8024798674       -0.1757332315
 O         -3.4933605693        3.3104678609       -1.9157954783
 H         -4.1257851237        2.6757667253       -2.2725061564
 C         -4.2733224742        2.4234887600        0.2393421376
 H         -4.9583008455        1.8335309868       -0.3833882765
 O         -5.0245092284        3.4865698236        0.7511393322
 H         -4.5407842324        3.8440296250        1.5088864054
 C         -3.7321753639        1.5364639285        1.3812087354
 H         -4.5782518899        1.2396213613        2.0125188164
 O         -2.8909509667        2.2802054326        2.2220468479
 H         -2.0096459536        2.3218450512        1.8184082990
 C         -2.1220085082       -0.4111870773        1.7289955077
 H         -1.2259583585        0.1877446334        1.8696610330
 H         -1.8388685900       -1.3807432818        1.3287570848
 H         -2.6056087633       -0.5538976526        2.6914006429
 H          3.9727835969        1.3861964635        4.1928426107
  72
  -125.09347283000000        3.0012646992033106E-004 !
 C          2.8208543238        2.0216278903       -0.2940869984
 H          3.6413923594        2.7083547248       -0.5360981828
 O          2.6560527693        1.2213303411       -1.4222668563
 H          1.8219439646        0.7165208814       -1.3406118376
 C          0.5293003538        2.1887636186        0.3895756185
 H         -0.1896525026        2.2404811072       -0.4378482666
 O          1.7252761648        2.8446032569       -0.0221507007
 C          3.1803273443        1.2381737306        0.9933602091
 H          3.2886727747        2.0077170788        1.7657941147
 N          4.4554242668        0.5432692143        0.8716800979
 H          5.0317841005        0.6397242148        1.6946971101
 C          4.5153388954       -0.7756636555        0.3672525529
 O          4.2443694234       -0.9338772182       -0.9834481987
 C          5.6286273707       -1.6376325111        0.8729895987
 H          5.5147061802       -1.8340415200        1.9392757541
 H          6.6106382496       -1.1756386976        0.7155098087
 H          5.6180497008       -2.5817401009        0.3352628949
 C          2.0084331022        0.3142815499        1.3970512700
 H          2.2687555839       -0.7040744791        1.0610242684
 O          1.7978526982        0.3292807490        2.7940467865
 H          2.5870868044       -0.0052504714        3.2339142305
 C          0.6705026267        0.7007507374        0.7396433780
 H         -0.1196883593        0.4601526982        1.4633127144
 O          0.4229028827       -0.0105151693       -0.4709214228
 C         -0.0487747506        2.9545171014        1.5944295496
 H         -0.1827973401        4.0058256392        1.3161392765
 H          0.6440149711        2.8818152040        2.4358113566
 O         -1.2573001362        2.3941104116        2.0622988358
 C          0.1494305817       -1.3667439575       -0.3686804225
 H         -0.3773025221       -1.5912090828        0.5798060435
 C          1.2918811659       -3.4566384447       -0.4614429820
 H          0.7780543694       -3.8341054433        0.4390027982
 O          1.3807787851       -2.0476449054       -0.4073021405
 C         -0.7577039516       -1.7534530519       -1.5431972227
 H         -0.2927846127       -1.3768394572       -2.4671921102
 O         -2.0154726280       -1.1588323435       -1.3450485236
 H         -2.6530631872       -1.6614295162       -1.8740319208
 C         -0.8984787814       -3.2814690655       -1.6422913391
 H         -1.4500197336       -3.6482178808       -0.7683162718
 O         -1.6652496174       -3.6157018905       -2.7668174765
 H         -1.0731725795       -3.5730580185       -3.5312737534
 C          0.4998082105       -3.9114292898       -1.6967101455
 H          0.4049374153       -5.0106755830       -1.6677067034
 O          1.0864151038       -3.5094567285       -2.9063128664
 H          2.0553406058       -3.5243633202       -2.7806428302
 C          2.7384099436       -3.9846216555       -0.4782808475
 H          2.7127246888       -5.0767925196       -0.5321557451
 H          3.2281121950       -3.6852450244        0.4553990098
 O          3.4596702577       -3.5349089995       -1.5904738759
 H          3.6947645297       -2.5924327010       -1.4518677708
 C         -2.4119581281        2.6781315288        1.3358773817
 H         -2.5823383988        3.7763815794        1.2901337190
 C         -3.4703177255        2.4035842413       -0.7481375894
 H         -3.7364141751        3.4728363063       -0.7048108905
 O         -2.3049260103        2.1780218144        0.0291171658
 C         -3.5679594051        2.0186461676        2.1180628471
 H         -3.2905486596        0.9663060048        2.2903856155
 O         -3.7570394804        2.6876831286        3.3338201954
 H         -2.9259521585        2.6549936629        3.8228407916
 C         -4.8816869739        2.0602121255        1.3127793038
 H         -5.2632033892        3.0856927413        1.3301928936
 O         -5.8693870726        1.2597410363        1.8905477664
 H         -5.6729263980        0.3448139264        1.6392094025
 C         -4.6182544083        1.5916276768       -0.1383277418
 H         -5.5391413439        1.7300762808       -0.7177834712
 O         -4.3389000768        0.2115722006       -0.1350802110
 H         -3.3788676827        0.0868999594       -0.1900983202
 C         -3.1474450238        1.9912545866       -2.1776048684
 H         -2.3672498423        2.6325260078       -2.5766523300
 H         -4.0359492023        2.0753531768       -2.7958509914
 H         -2.7908505988        0.9652045309       -2.1861545813
 H          3.7597501312       -0.1456225961       -1.3028578870
  72
  -125.09346881000000        2.9885246065109469E-004 !
 C          3.1451158653        2.3047906542        1.0049179006
 H          3.9498052248        2.6716519029        1.6542707924
 O          3.1066743888        3.1014282629       -0.1197206748
 H          2.9324428712        2.5234246291       -0.8877604450
 C          0.8604440938        1.7746903210        1.2998992495
 H          0.7486671742        1.9814272874        0.2271071293
 O          1.9838503710        2.4585447451        1.8126927031
 C          3.3553286158        0.8056697747        0.6358728406
 H          4.4180979628        0.5631465855        0.7180942656
 N          2.9396255939        0.5869154025       -0.7443776292
 H          1.9383127781        0.4140687206       -0.7905642428
 C          3.6455649698       -0.3781146190       -1.4939327528
 O          2.8614361460       -1.2232830695       -2.2653114093
 C          4.9466454458        0.0106194588       -2.1108316657
 H          4.8009450335        0.5525791734       -3.0522359038
 H          5.5345729359       -0.8782893174       -2.3302848609
 H          5.5006060686        0.6503023835       -1.4301849156
 C          2.5511196236       -0.0707956635        1.6188276219
 H          2.7185180750       -1.1245236046        1.3728076230
 O          2.9784943928        0.0892099426        2.9431173578
 H          2.8074289732        1.0052408428        3.2037299797
 C          1.0408624244        0.2512932357        1.4857370793
 H          0.5482129058       -0.0777069297        2.4114151375
 O          0.4183013553       -0.3824763214        0.3764954691
 C         -0.3926516186        2.2906034903        2.0006665915
 H         -0.4753426330        3.3724567560        1.8534258241
 H         -0.3404633981        2.0852964982        3.0789619933
 O         -1.4948324690        1.6188863494        1.4256212612
 C          0.2690803622       -1.7610478026        0.4564485791
 H          0.2026610384       -2.0939497135        1.5083779291
 C          1.3713859782       -3.7527237901       -0.2363913591
 H          1.2379011173       -4.1703219600        0.7743261396
 O          1.4085248595       -2.3377172375       -0.1508924277
 C         -1.0285236508       -2.1550144654       -0.2578294282
 H         -1.0543785562       -1.6478499217       -1.2338089753
 O         -2.0879607905       -1.7267082256        0.5571035285
 H         -2.9057696800       -2.0077446408        0.1247871953
 C         -1.1143053124       -3.6794879033       -0.4761382899
 H         -1.2776009833       -4.1623153050        0.4942452075
 O         -2.2280660232       -3.9893933453       -1.2654648090
 H         -1.9867807656       -3.8005598734       -2.1833985399
 C          0.1856855085       -4.1927291783       -1.1105289713
 H          0.1627735598       -5.2938139301       -1.1512023088
 O          0.2444527116       -3.6536182434       -2.4057938202
 H          1.1344361567       -3.8426386244       -2.7554592497
 C          2.7280969623       -4.2398193877       -0.7829214841
 H          2.7691242547       -5.3257453420       -0.6630559002
 H          3.5225722544       -3.7868068607       -0.1782320908
 O          2.9241077929       -3.9865097818       -2.1466987650
 H          3.1091014563       -3.0341005718       -2.2773718458
 C         -2.7514484294        2.1745365405        1.7387517724
 H         -2.8441395933        2.2854297938        2.8358093715
 C         -3.0588883027        3.6462457866       -0.1517984704
 H         -3.4660163293        4.6613357905       -0.2274565636
 O         -2.9281382150        3.4663037274        1.2620630547
 C         -3.8009078939        1.1640778712        1.2331903452
 H         -3.4633966045        0.1617104664        1.5430874327
 O         -5.0833739043        1.4480173956        1.7260907793
 H         -5.0492272563        1.5387176941        2.6851772473
 C         -3.8731537189        1.2153525353       -0.2942960131
 H         -4.7444347090        0.6303198229       -0.6192434391
 O         -2.7440550059        0.6515351071       -0.9176508487
 H         -2.0163576113        0.6312580123       -0.2788690152
 C         -4.1006938265        2.6716220873       -0.7520249640
 H         -5.0934813730        2.9744083249       -0.4016999164
 O         -4.1147327372        2.7341274065       -2.1523440925
 H         -3.4452614982        2.1077543589       -2.4630948893
 C         -1.7198581835        3.6223992725       -0.8911116729
 H         -1.8839541840        3.9542260474       -1.9130880056
 H         -1.2858083051        2.6273705490       -0.9050922641
 H         -1.0275730582        4.3089617720       -0.4093547407
 H          2.0392827615       -1.4067813854       -1.7796261334
  72
  -125.09344041999999        2.9000781108905335E-004 !
 C          2.4082217874        1.1259350173       -1.6897907766
 H          3.1907607116        1.7208088397       -2.1782603902
 O          2.6517391949       -0.1916291683       -2.0762118094
 H          1.8542525716       -0.7246795020       -1.8803171144
 C          0.0075415349        1.3157793407       -1.4752722390
 H         -0.7042655092        0.9157220817       -2.2092639155
 O          1.2006077690        1.6212343827       -2.1900175364
 C          2.4856039285        1.3534815704       -0.1589056045
 H          2.3050251868        2.4247753107       -0.0192931403
 N          3.8140656796        1.0574692664        0.3639731227
 H          4.1326016936        1.7494441063        1.0263670133
 C          4.1408533114       -0.2464522960        0.8012546336
 O          4.2749080833       -1.2120976429       -0.1838404512
 C          5.1384815068       -0.3592055786        1.9093257923
 H          5.3454424061       -1.4101669845        2.0926240701
 H          4.7559638980        0.0925988201        2.8245636416
 H          6.0883060870        0.1289919096        1.6601922188
 C          1.3588825745        0.5720186097        0.5566121743
 H          1.7876904878       -0.3805215871        0.9049140808
 O          0.8406910294        1.3047505225        1.6488067029
 H          1.5149957444        1.3716548802        2.3335574889
 C          0.1761351061        0.2583625339       -0.3793324604
 H         -0.7355341500        0.2481742991        0.2322648777
 O          0.3016618005       -0.9958093712       -1.0399878120
 C         -0.5834171881        2.6206590029       -0.9067115973
 H         -0.5594814899        3.3704636856       -1.7040072416
 H          0.0012685920        2.9832564687       -0.0592095609
 O         -1.9276965837        2.4137121301       -0.5121741394
 C          0.1562550877       -2.1433863932       -0.2706134821
 H         -0.6232972721       -1.9997614141        0.5024028826
 C          1.4489801146       -3.6217756837        1.0694475809
 H          0.6929895103       -3.6033105208        1.8728076299
 O          1.3969148014       -2.4115167109        0.3409077056
 C         -0.2684118972       -3.2789735759       -1.2096984531
 H          0.4450459166       -3.3051045061       -2.0485792757
 O         -1.5662540467       -3.0074411951       -1.6641389813
 H         -1.9022514291       -3.8246326813       -2.0584662131
 C         -0.2260208736       -4.6348219240       -0.4808679841
 H         -1.0097211341       -4.6521207284        0.2855071891
 O         -0.5229765689       -5.6680786321       -1.3805978545
 H          0.2915454937       -5.8515510639       -1.8705738590
 C          1.1564405137       -4.8238042429        0.1581486111
 H          1.1506868728       -5.7385013377        0.7759780114
 O          2.0774548955       -4.9563615838       -0.8923105047
 H          2.9530422713       -4.6964221874       -0.5452660765
 C          2.8503019101       -3.7037623897        1.7030996939
 H          2.9050495665       -4.6145350792        2.3065877556
 H          2.9855190872       -2.8351374659        2.3581166872
 O          3.8748432157       -3.7812112141        0.7528461989
 H          4.0070761905       -2.8929819402        0.3551670862
 C         -2.1973204744        2.5791744245        0.8681113499
 H         -1.4174669404        2.1084489128        1.4805398819
 C         -3.1667864166        4.7858330974        0.6974076929
 H         -3.4101913600        5.4615884894        1.5270370097
 O         -2.1731609752        3.9155436402        1.2520354072
 C         -3.5356338610        1.8668079832        1.1485219725
 H         -3.7590465356        1.2262721156        0.2786692653
 O         -3.3833947911        1.0700108695        2.2948415381
 H         -4.2639676760        0.7826583909        2.5690092628
 C         -4.6741585179        2.8911450796        1.3103164608
 H         -4.6568424443        3.2821359420        2.3334537443
 O         -5.9253616383        2.2803353092        1.1285741560
 H         -6.0823807629        2.2264109217        0.1753058708
 C         -4.4534320424        4.0353281535        0.3060576553
 H         -5.3000963270        4.7290897878        0.3595310285
 O         -4.4696243368        3.5395510883       -1.0086781349
 H         -3.6340252218        3.0719405269       -1.1703414372
 C         -2.6059400583        5.6094338895       -0.4605336772
 H         -2.4041686989        4.9832334942       -1.3247505602
 H         -1.6825325341        6.0878171359       -0.1460806721
 H         -3.3283769303        6.3700529338       -0.7434640767
 H          3.8038599750       -0.9078854303       -0.9881431586
  72
  -125.09339244000000        2.7565102649142290E-004 !
 C          2.3880739149        2.5958345186        0.8901386393
 H          1.8810337951        3.3034883812        1.5639319589
 O          3.5694423609        3.1590789112        0.3922821575
 H          3.3343676696        3.9153167030       -0.1575262031
 C          1.5542468274        1.1281311330       -0.7999432645
 H          2.5778622189        0.9812984634       -1.1691855210
 O          1.4612267656        2.3861274515       -0.1475514903
 C          2.7248311195        1.3095065290        1.6714035512
 H          2.9198122557        1.5785569743        2.7212710622
 N          3.8429556220        0.6383806942        1.0641954899
 H          4.4901624146        1.2961874771        0.6484434644
 C          4.5051063329       -0.4214492941        1.7235800840
 O          3.7613330190       -1.1476652345        2.6165240992
 C          5.4684835074       -1.1768108055        0.8582346472
 H          4.9389773393       -1.7969188337        0.1235956579
 H          6.0805730281       -1.8286163529        1.4781120718
 H          6.1161954057       -0.4889994110        0.3209433823
 C          1.4726217428        0.4160707447        1.6212216140
 H          1.6483304929       -0.4689950755        2.2443953215
 O          0.3799785388        1.1546014170        2.1174437174
 H         -0.4417441822        0.7252217768        1.8277133775
 C          1.2394706103       -0.0326157997        0.1658987479
 H          0.1864115963       -0.3099288562        0.0601719656
 O          2.0589073903       -1.1388900058       -0.2011092696
 C          0.5886366308        1.1401151072       -1.9971565078
 H          0.8852800683        0.3596486974       -2.6982562500
 H          0.6249332629        2.1212997503       -2.4809054083
 O         -0.7515462012        0.8176535507       -1.6589139838
 C          1.3991291534       -2.3375631374       -0.4066696918
 H          2.1649181595       -3.0210519982       -0.8134402481
 C         -0.4224635926       -3.2269457015       -1.6828310327
 H          0.1869614517       -4.0065863603       -2.1695184914
 O          0.3813810803       -2.1148698108       -1.3553947656
 C          0.8411469971       -2.9616734005        0.8856893902
 H          0.1777368205       -2.2354874945        1.3808195781
 O          1.9317061273       -3.2821105077        1.7135614598
 H          1.6052084190       -3.8846742534        2.3971980486
 C          0.0173479631       -4.2196212278        0.5665906587
 H          0.6758377010       -4.9889632764        0.1477014164
 O         -0.5215252846       -4.7541718286        1.7465022168
 H         -1.3028589941       -4.2254422730        1.9616288953
 C         -1.0809191795       -3.8426405641       -0.4376335327
 H         -1.6234062943       -4.7535864228       -0.7435503977
 O         -1.9624027558       -2.9671305708        0.2209900357
 H         -2.3042211351       -2.3383053812       -0.4419117337
 C         -1.4680493979       -2.6929157530       -2.6784160950
 H         -2.1847009980       -3.4824244423       -2.9178648129
 H         -0.9546656923       -2.3836837977       -3.5960357271
 O         -2.2019560742       -1.6249793413       -2.1376060746
 H         -1.5873461989       -0.8849228034       -1.9765517252
 C         -1.4171687457        1.7513376964       -0.8696348690
 H         -0.7417400987        2.2033755489       -0.1258635761
 C         -2.5935679990        3.7855179589       -1.0084143092
 H         -1.9443466470        4.1483250996       -0.1962538419
 O         -1.9239378304        2.7587906904       -1.7205218369
 C         -2.5622574419        1.0335144661       -0.1378170435
 H         -3.1560091057        0.4778169955       -0.8804710161
 O         -2.0097877604        0.1324490937        0.7953384051
 H         -2.7381236107       -0.1907646216        1.3445357425
 C         -3.4676101317        2.0538914947        0.5790625955
 H         -2.9222970653        2.4687000833        1.4345920384
 O         -4.6010245444        1.4033274549        1.0941775779
 H         -5.2602899742        1.3748841676        0.3848978584
 C         -3.8663326575        3.1747477564       -0.3991432763
 H         -4.4558472265        3.9305843639        0.1293383204
 O         -4.6969588131        2.6424137912       -1.4030075750
 H         -4.1169049316        2.2916233390       -2.0950047768
 C         -2.9060232335        4.9145084041       -1.9801572969
 H         -1.9958707548        5.2183264582       -2.4879268895
 H         -3.3179080627        5.7606455848       -1.4385718729
 H         -3.6271024749        4.5818466665       -2.7217689011
 H          3.3574015374       -1.9298230625        2.1956634698
  72
  -125.09334336000001        2.6170017182452549E-004 !
 C          2.5119274678        1.8605002894       -0.7779550190
 H          3.3118886672        2.5722105036       -1.0206048708
 O          2.6407894703        0.8303420585       -1.7098330400
 H          1.8052025894        0.3199906321       -1.7163625860
 C          0.1481480546        2.0694640071       -0.2897976545
 H         -0.6447014097        2.0779229830       -1.0479166198
 O          1.3202224337        2.5748088059       -0.9269893409
 C          2.6834477389        1.3956185563        0.6906407434
 H          2.5992786883        2.3070058346        1.2920678726
 N          4.0083042928        0.8329047867        0.9258300313
 H          4.4235560699        1.1630432360        1.7845010670
 C          4.2425610062       -0.5493623721        0.7493633749
 O          4.2345382791       -1.0130917325       -0.5568058117
 C          5.2836369010       -1.1794065630        1.6179923259
 H          5.0008177969       -1.1190884127        2.6687134725
 H          6.2633735171       -0.7009393928        1.5012602574
 H          5.3914421414       -2.2244141133        1.3397887371
 C          1.5349208916        0.4386701518        1.0882734818
 H          1.9020681496       -0.5904120240        0.9538284677
 O          1.1361193375        0.6460935696        2.4286293101
 H          1.8482615809        0.3683181895        3.0146896586
 C          0.2837452780        0.6280447965        0.2097508626
 H         -0.5900885307        0.3890802797        0.8287837931
 O          0.2814774413       -0.1961275326       -0.9513727373
 C         -0.2342246053        3.0400437541        0.8467428987
 H         -0.1093531275        4.0591981365        0.4585398962
 H          0.4135811521        2.8957553214        1.7128290438
 O         -1.5367274996        2.8708491529        1.3580458301
 C          0.0757596752       -1.5578387993       -0.7878773056
 H         -0.6999469891       -1.7512119586       -0.0224156718
 C          1.2723148982       -3.5487244407       -0.2730796578
 H          0.5171020723       -3.8446989915        0.4751004172
 O          1.2968842655       -2.1403456506       -0.3879002089
 C         -0.3829233851       -2.1250043433       -2.1376635826
 H          0.3642041671       -1.8330887626       -2.8929410277
 O         -1.6415168494       -1.5965281644       -2.4516970493
 H         -2.0078969470       -2.1492568712       -3.1568583176
 C         -0.4507548831       -3.6622248298       -2.0773183794
 H         -1.2461108999       -3.9575149900       -1.3830464352
 O         -0.8074554070       -4.1705460382       -3.3341465116
 H         -0.0003013233       -4.1780440461       -3.8688050314
 C          0.9055987227       -4.2085951008       -1.6119906601
 H          0.8262929729       -5.2980413905       -1.4531790945
 O          1.8251490643       -3.9362495094       -2.6363124793
 H          2.7146060223       -3.9195099136       -2.2318255462
 C          2.6638535303       -3.9822371891        0.2246246351
 H          2.6543998236       -5.0648393864        0.3809241762
 H          2.8575301853       -3.4868985243        1.1835658292
 O          3.6837426924       -3.7131952748       -0.6948843973
 H          3.8635215833       -2.7470790100       -0.7003053761
 C         -2.6037783101        3.0599153378        0.4403108899
 H         -2.3001445715        3.7864234134       -0.3272932994
 C         -3.9389937416        1.0567475592        0.2868062263
 H         -4.8842927282        1.3927622932       -0.1653581468
 O         -2.8915043399        1.8792368578       -0.2309859399
 C         -3.7857612272        3.6585445318        1.2202326316
 H         -3.3820097766        4.4740466741        1.8394753123
 O         -4.6826350117        4.1564454137        0.2580763463
 H         -5.3985153353        4.6179422505        0.7100981695
 C         -4.4607821680        2.6373823939        2.1747020842
 H         -5.5474251947        2.7516654258        2.0565048456
 O         -4.1530658296        2.9082379672        3.5121498887
 H         -3.4455142662        2.2922176541        3.7674182689
 C         -4.0684944058        1.1872399537        1.8113590743
 H         -4.8486545553        0.5019473678        2.1600968812
 O         -2.9077198222        0.8032521243        2.5011761983
 H         -2.1717754754        1.3600322291        2.1845599269
 C         -3.6367989082       -0.3821286097       -0.1134775783
 H         -3.1805562554       -0.4039816950       -1.0984761072
 H         -4.5509444974       -0.9679122101       -0.1199211440
 H         -2.9439919535       -0.8193557393        0.6017481811
 H          3.7577126534       -0.3642821338       -1.1169276650
  72
  -125.09334286000001        2.6156174356320200E-004 !
 C          2.5088866583        1.8573503212       -0.7821957257
 H          3.3082309409        2.5692773185       -1.0262936605
 O          2.6391141612        0.8248619706       -1.7113401421
 H          1.8042379661        0.3132913306       -1.7163558417
 C          0.1453838211        2.0658876513       -0.2931529461
 H         -0.6487654294        2.0733402209       -1.0498603718
 O          1.3162197180        2.5696730387       -0.9335913107
 C          2.6806013993        1.3959227896        0.6874263301
 H          2.5950340035        2.3087182510        1.2864692860
 N          4.0060349661        0.8355879607        0.9249068227
 H          4.4191337489        1.1664242183        1.7844174273
 C          4.2426093846       -0.5464402049        0.7492004875
 O          4.2401943800       -1.0099960638       -0.5569683105
 C          5.2808886350       -1.1751417410        1.6220669344
 H          6.2603284492       -0.6950961054        1.5096104752
 H          5.3916562537       -2.2197064258        1.3434684698
 H          4.9935766193       -1.1158655405        2.6717976217
 C          1.5332416737        0.4381839460        1.0869195077
 H          1.9015154528       -0.5907184138        0.9535072012
 O          1.1346483111        0.6466332780        2.4270918200
 H          1.8484553775        0.3729656309        3.0130895836
 C          0.2815968259        0.6252988538        0.2086670587
 H         -0.5919245079        0.3869128494        0.8283966813
 O          0.2792929052       -0.2007708837       -0.9510819999
 C         -0.2347906728        3.0386053811        0.8423628271
 H         -0.1085273420        4.0571634012        0.4528935179
 H          0.4131409192        2.8943516813        1.7083516994
 O         -1.5371432978        2.8718825520        1.3546531683
 C          0.0770275293       -1.5627794208       -0.7847553890
 H         -0.6952402302       -1.7565462838       -0.0158903097
 C          1.2812883305       -3.5501474678       -0.2733181552
 H          0.5292848551       -3.8480638435        0.4772529309
 O          1.3011831121       -2.1416675660       -0.3887917851
 C         -0.3863341032       -2.1326470468       -2.1318559107
 H          0.3557479084       -1.8382479390       -2.8911635314
 O         -1.6485900425       -1.6090242626       -2.4393058268
 H         -2.0166243287       -2.1632286564       -3.1424036821
 C         -0.4481605743       -3.6700899268       -2.0707127994
 H         -1.2392566256       -3.9681627098       -1.3728050432
 O         -0.8086667019       -4.1802630580       -3.3257279664
 H         -0.0041415676       -4.1843903740       -3.8643167313
 C          0.9120961472       -4.2112827718       -1.6108516023
 H          0.8378041010       -5.3010968269       -1.4521459435
 O          1.8266879842       -3.9347308095       -2.6383999943
 H          2.7176242322       -3.9158976574       -2.2373876254
 C          2.6753652727       -3.9801850881        0.2202303989
 H          2.6688649733       -5.0626940126        0.3775749270
 H          2.8709635892       -3.4834698508        1.1780242272
 O          3.6915183105       -3.7095378094       -0.7029367227
 H          3.8715062820       -2.7434762509       -0.7068197476
 C         -2.6044977049        3.0615293204        0.4374358192
 H         -2.2998929467        3.7857017485       -0.3319967382
 C         -3.9441346772        1.0610936079        0.2900086381
 H         -4.8893421610        1.3986640086       -0.1611789663
 O         -2.8955695766        1.8801590920       -0.2311390057
 C         -3.7843240793        3.6643362525        1.2172881773
 H         -3.3785316150        4.4813126007        1.8332931733
 O         -4.6823538194        4.1597437987        0.2549813147
 H         -5.3961677997        4.6252297970        0.7062492571
 C         -4.4584063455        2.6466161046        2.1762916291
 H         -5.5451737487        2.7633198198        2.0615764137
 O         -4.1450699895        2.9197077979        3.5118464603
 H         -3.4393655952        2.3011118713        3.7662501082
 C         -4.0707033907        1.1946321990        1.8145013542
 H         -4.8522427044        0.5121307601        2.1656095515
 O         -2.9099075088        0.8085520373        2.5030334409
 H         -2.1728962209        1.3624112578        2.1839549805
 C         -3.6460427500       -0.3791287434       -0.1083315568
 H         -3.1955135775       -0.4039592044       -1.0958985991
 H         -4.5610688895       -0.9636472297       -0.1078639831
 H         -2.9495069206       -0.8156577317        0.6036653306
 H          3.7610670504       -0.3635228534       -1.1179257917
  72
  -125.09333101000000        2.5830234013272680E-004 !
 C          2.5109475878        1.8570813395       -0.7912988420
 H          3.3119715288        2.5669768785       -1.0358037229
 O          2.6425771409        0.8210072553       -1.7162203304
 H          1.8073085765        0.3101005023       -1.7213448205
 C          0.1460518956        2.0714553462       -0.3104080382
 H         -0.6457602911        2.0762441005       -1.0696316656
 O          1.3197444033        2.5706404282       -0.9493066031
 C          2.6774851555        1.4011615103        0.6806318786
 H          2.5922710523        2.3163044339        1.2760987305
 N          4.0012641818        0.8392087861        0.9240883441
 H          4.4115866125        1.1719201084        1.7842204406
 C          4.2353878339       -0.5438225304        0.7539647755
 O          4.2389258746       -1.0113662741       -0.5507883876
 C          5.2664890699       -1.1731331319        1.6348478465
 H          4.9709895717       -1.1132510888        2.6822542664
 H          6.2472667355       -0.6939018603        1.5302158361
 H          5.3784289512       -2.2179721960        1.3576699534
 C          1.5273684083        0.4469856887        1.0804811120
 H          1.8943546980       -0.5830518069        0.9521476652
 O          1.1249387824        0.6616079036        2.4185403591
 H          1.8349596172        0.3860925936        3.0081990208
 C          0.2787959080        0.6328345953        0.1977154797
 H         -0.5971390821        0.3982519030        0.8153004227
 O          0.2788315814       -0.1973700705       -0.9591264527
 C         -0.2356230484        3.0503318716        0.8191616364
 H         -0.1173502377        4.0664202021        0.4208235803
 H          0.4175128417        2.9173611898        1.6830162643
 O         -1.5342517247        2.8800324350        1.3397328193
 C          0.0745963826       -1.5585886976       -0.7887355808
 H         -0.6984153577       -1.7491705785       -0.0199581556
 C          1.2748144797       -3.5460221648       -0.2705887791
 H          0.5201215490       -3.8404832924        0.4786949055
 O          1.2976275273       -2.1379852445       -0.3900168253
 C         -0.3891839273       -2.1311288457       -2.1345724507
 H          0.3519641728       -1.8373826444       -2.8949958544
 O         -1.6520062818       -1.6079113358       -2.4410394897
 H         -2.0186334853       -2.1592007031       -3.1471286747
 C         -0.4506899255       -3.6685560886       -2.0718932323
 H         -1.2439401092       -3.9658443200       -1.3760659563
 O         -0.8072500093       -4.1800600978       -3.3275237778
 H         -0.0007045926       -4.1859165681       -3.8631083631
 C          0.9081167736       -4.2096478474       -1.6075440526
 H          0.8326874376       -5.2990841140       -1.4468156005
 O          1.8254817842       -3.9358033247       -2.6333853661
 H          2.7154365775       -3.9171689118       -2.2301562100
 C          2.6668003598       -3.9774214908        0.2276619475
 H          2.6579232064       -5.0596436514        0.3869172450
 H          2.8605290181       -3.4794072120        1.1851632708
 O          3.6860574754       -3.7101958354       -0.6930763002
 H          3.8677089810       -2.7444079725       -0.6982764654
 C         -2.6075029260        3.0489195414        0.4254337352
 H         -2.3122203534        3.7638630029       -0.3561992226
 C         -3.9337696398        1.0372655506        0.3154400965
 H         -4.8836931700        1.3615939145       -0.1355587869
 O         -2.8936168601        1.8554763328       -0.2235755664
 C         -3.7874374361        3.6548525810        1.2027344006
 H         -3.3840642401        4.4837923461        1.8042123470
 O         -4.6939574463        4.1298472148        0.2379773712
 H         -5.4093398781        4.5954704453        0.6866235008
 C         -4.4494928508        2.6472523440        2.1804145786
 H         -5.5376604622        2.7546068423        2.0696466586
 O         -4.1315674202        2.9427557172        3.5101888863
 H         -3.4197002826        2.3337425698        3.7702640628
 C         -4.0534436152        1.1928475823        1.8385269169
 H         -4.8284738709        0.5104890329        2.2040628926
 O         -2.8866728855        0.8250439611        2.5268661739
 H         -2.1545050114        1.3783370739        2.1958614525
 C         -3.6279935634       -0.4069098732       -0.0628492355
 H         -4.5396395424       -0.9965463895       -0.0521291368
 H         -2.9279795983       -0.8290410114        0.6545883610
 H         -3.1796683758       -0.4429233315       -1.0512259355
 H          3.7626398965       -0.3662622818       -1.1157108628
  72
  -125.09332357000000        2.5627671794859353E-004 !
 C          2.5120255633        1.8583107263       -0.7935430672
 H          3.3135214653        2.5679072319       -1.0373852562
 O          2.6447536156        0.8216527294       -1.7176081585
 H          1.8092963511        0.3111221765       -1.7239308888
 C          0.1466084793        2.0737901492       -0.3156521221
 H         -0.6443334345        2.0783182131       -1.0757459499
 O          1.3211701306        2.5720666382       -0.9536565147
 C          2.6765468517        1.4030426395        0.6788446690
 H          2.5912774498        2.3184394586        1.2739080804
 N          3.9997469370        0.8402237003        0.9236960534
 H          4.4102426930        1.1740681158        1.7832939342
 C          4.2325030117       -0.5431871672        0.7557196392
 O          4.2373031516       -1.0124158992       -0.5484330306
 C          5.2612798195       -1.1727521158        1.6391781834
 H          5.3736710022       -2.2175231230        1.3623631538
 H          4.9631786749       -1.1131570461        2.6858504172
 H          6.2425335760       -0.6937470019        1.5374709626
 C          1.5256002459        0.4495059518        1.0775745374
 H          1.8925229058       -0.5806757790        0.9500451691
 O          1.1217289870        0.6645355054        2.4150718561
 H          1.8313959504        0.3897679663        3.0055424739
 C          0.2781604286        0.6354268511        0.1933396562
 H         -0.5986361013        0.4015328214        0.8099008114
 O          0.2793087772       -0.1954515398       -0.9630605303
 C         -0.2357751941        3.0538132352        0.8127623097
 H         -0.1203473201        4.0695139615        0.4126176888
 H          0.4188962186        2.9239491677        1.6758922313
 O         -1.5331933521        2.8816268707        1.3356589622
 C          0.0742847090       -1.5563469726       -0.7918227918
 H         -0.6995972446       -1.7460756830       -0.0237349773
 C          1.2709713065       -3.5440262655       -0.2689672412
 H          0.5139020454       -3.8357996378        0.4789331971
 O          1.2964268814       -2.1363180657       -0.3911449209
 C         -0.3885853199       -2.1299876444       -2.1375395432
 H          0.3531964071       -1.8371655808       -2.8976773141
 O         -1.6510104661       -1.6063328435       -2.4450643797
 H         -2.0172013035       -2.1571730110       -3.1517019716
 C         -0.4509649462       -3.6673863844       -2.0734908151
 H         -1.2453401897       -3.9635210382       -1.3784910943
 O         -0.8060349317       -4.1801717975       -3.3289976015
 H          0.0010729280       -4.1865479975       -3.8637447545
 C          0.9066518918       -4.2087161930       -1.6060757989
 H          0.8303219551       -5.2980335321       -1.4449448705
 O          1.8260851206       -3.9357704840       -2.6303117941
 H          2.7153386070       -3.9186538859       -2.2256830732
 C          2.6608471965       -3.9770636057        0.2334734940
 H          2.6500294881       -5.0591517057        0.3934688385
 H          2.8529524732       -3.4786435057        1.1911375358
 O          3.6827445506       -3.7120760794       -0.6849063872
 H          3.8647371276       -2.7464121092       -0.6917002187
 C         -2.6081940144        3.0441116199        0.4222813542
 H         -2.3155962898        3.7560502217       -0.3630198626
 C         -3.9290288395        1.0281688726        0.3231838685
 H         -4.8803881173        1.3466320555       -0.1288038036
 O         -2.8922358329        1.8470793369       -0.2211924783
 C         -3.7882864153        3.6516016535        1.1980885379
 H         -3.3856050206        4.4835098641        1.7958097778
 O         -4.6959624283        4.1210610846        0.2317387990
 H         -5.4123852817        4.5865507562        0.6788433549
 C         -4.4480349490        2.6470298521        2.1801471161
 H         -5.5363755641        2.7512373248        2.0682084922
 O         -4.1315011948        2.9496834069        3.5087528864
 H         -3.4185466419        2.3433106830        3.7722167691
 C         -4.0486734868        1.1919817249        1.8453866969
 H         -4.8218552223        0.5095435990        2.2147846345
 O         -2.8808986498        0.8308232950        2.5355277495
 H         -2.1497959859        1.3833571641        2.2010876786
 C         -3.6188224780       -0.4171255062       -0.0475599502
 H         -2.9215818439       -0.8348153256        0.6750631901
 H         -3.1663048736       -0.4564819440       -1.0338730358
 H         -4.5291489376       -1.0087383649       -0.0386417393
 H          3.7631530905       -0.3671958426       -1.1148881641
  72
  -125.09328101000000        2.4499088793035836E-004 !
 C          2.5130821563        1.8623118580       -0.7702499765
 H          3.3087097577        2.5786305269       -1.0199012839
 O          2.6348753285        0.8326946860       -1.7095506942
 H          1.7840234446        0.3480777622       -1.7362223553
 C          0.1535388111        2.0612245433       -0.2658579893
 H         -0.6439996742        2.0778413306       -1.0189543476
 O          1.3202012552        2.5746929166       -0.9085176289
 C          2.6866433172        1.3873568174        0.6979160139
 H          2.5785406391        2.2976070635        1.3045741309
 N          3.9673472810        0.8096771769        1.0473052040
 H          4.7281031723        1.4840026027        0.9970600315
 C          4.2998150204       -0.5152978019        0.7602242292
 O          4.1640597529       -1.0280971385       -0.5245584315
 C          5.4368635585       -1.0947057165        1.5335621446
 H          6.3871870692       -0.5995869395        1.2981475134
 H          5.5407613142       -2.1476276027        1.2858470192
 H          5.2598095007       -0.9873209544        2.6012978477
 C          1.5545558146        0.4158305687        1.0825160378
 H          1.9212465055       -0.6092084183        0.9313170192
 O          1.1726423053        0.5952051724        2.4287061327
 H          1.9471657503        0.4398282005        2.9813692622
 C          0.2948578015        0.6148342744        0.2178265101
 H         -0.5723943005        0.3680563757        0.8426234732
 O          0.2827164500       -0.1981563466       -0.9524520303
 C         -0.2246727327        3.0177940129        0.8838933256
 H         -0.0852279944        4.0420237100        0.5139357236
 H          0.4132920840        2.8502797892        1.7532794483
 O         -1.5337525654        2.8547186385        1.3801554861
 C          0.0680665451       -1.5597092893       -0.7981433767
 H         -0.7168432458       -1.7513980093       -0.0418360127
 C          1.2357285333       -3.5598559849       -0.2636292368
 H          0.4665452846       -3.8408284483        0.4755765399
 O          1.2802636667       -2.1528030731       -0.3885344354
 C         -0.3773047636       -2.1212435166       -2.1548372515
 H          0.3847666333       -1.8392698381       -2.8991518943
 O         -1.6246140762       -1.5793600964       -2.4897111928
 H         -1.9891307028       -2.1334140721       -3.1948522333
 C         -0.4628409857       -3.6578638208       -2.0928058834
 H         -1.2724685306       -3.9424006343       -1.4106553138
 O         -0.8054879710       -4.1643712778       -3.3543638492
 H          0.0103396315       -4.1849911794       -3.8752983318
 C          0.8789793832       -4.2208574017       -1.6047042534
 H          0.7822387129       -5.3084822749       -1.4436777042
 O          1.8182140535       -3.9651135283       -2.6158310472
 H          2.7008278271       -3.9538384347       -2.1966160391
 C          2.6146287878       -4.0067816099        0.2564852829
 H          2.5954191797       -5.0897353596        0.4083235781
 H          2.7971893347       -3.5156541618        1.2196620417
 O          3.6510614161       -3.7411935282       -0.6462710293
 H          3.8263569504       -2.7752792198       -0.6513814441
 C         -2.5901522097        3.0781533202        0.4580895798
 H         -2.2714527821        3.8196596463       -0.2889778546
 C         -3.9437412222        1.0921742416        0.2451950460
 H         -4.8823318856        1.4452376741       -0.2080819536
 O         -2.8857639475        1.9182030304       -0.2452259857
 C         -3.7723715753        3.6710228733        1.2417701805
 H         -3.3653832447        4.4663566718        1.8846241223
 O         -4.6541474639        4.2027149639        0.2836069817
 H         -5.3705986928        4.6586878814        0.7403309267
 C         -4.4679853791        2.6346617799        2.1644193194
 H         -5.5520900732        2.7632877987        2.0375753912
 O         -4.1717917878        2.8708378454        3.5108095163
 H         -3.4742340204        2.2408933626        3.7596149434
 C         -4.0869501519        1.1894146737        1.7709938288
 H         -4.8778676765        0.5047743101        2.0959579645
 O         -2.9377807584        0.7773750589        2.4635464412
 H         -2.1926387228        1.3331608972        2.1678670360
 C         -3.6481236314       -0.3396810504       -0.1839826995
 H         -3.1895094310       -0.3444133378       -1.1680763704
 H         -4.5654760756       -0.9201451395       -0.2041941887
 H         -2.9590543986       -0.7949363627        0.5234335045
 H          3.6499207877       -0.4043484068       -1.0819269306
  72
  -125.09327322999999        2.4298221755112012E-004 !
 C          2.5115932947        1.8605912235       -0.7777412760
 H          3.3073154135        2.5760128074       -1.0296335304
 O          2.6332637641        0.8281107841       -1.7138415440
 H          1.7828034056        0.3425963328       -1.7379788791
 C          0.1521120993        2.0616742393       -0.2742044456
 H         -0.6452230328        2.0751981188       -1.0275272583
 O          1.3188265731        2.5727534757       -0.9186075053
 C          2.6849564802        1.3904093997        0.6919251216
 H          2.5770980485        2.3025004305        1.2957973964
 N          3.9653871976        0.8132280352        1.0437135938
 H          4.7263103971        1.4871891329        0.9900714981
 C          4.2966528985       -0.5125532742        0.7590410608
 O          4.1680390847       -1.0254431389       -0.5263958798
 C          5.4264829163       -1.0951219598        1.5403938741
 H          6.3792835295       -0.6006276598        1.3139276281
 H          5.5310530502       -2.1475299216        1.2910808338
 H          5.2409284161       -0.9898009492        2.6069286070
 C          1.5526815727        0.4203418048        1.0795126491
 H          1.9195166423       -0.6051931736        0.9313658418
 O          1.1707471836        0.6038290226        2.4251072635
 H          1.9453442255        0.4505946368        2.9782548270
 C          0.2931004919        0.6168845708        0.2142638627
 H         -0.5743718452        0.3724577774        0.8396328524
 O          0.2807362979       -0.1995829036       -0.9535575222
 C         -0.2260965163        3.0227753543        0.8716753970
 H         -0.0893332738        4.0454485473        0.4965100867
 H          0.4139311892        2.8609931819        1.7405582197
 O         -1.5338292052        2.8597964710        1.3715097667
 C          0.0686669934       -1.5611801230       -0.7955110550
 H         -0.7126627234       -1.7525352414       -0.0355264703
 C          1.2421512655       -3.5586318773       -0.2642447454
 H          0.4753041004       -3.8408005080        0.4769551298
 O          1.2835950280       -2.1515254794       -0.3898699528
 C         -0.3822399780       -2.1251252663       -2.1494474308
 H          0.3744919095       -1.8407098159       -2.8982427554
 O         -1.6333090063       -1.5873477380       -2.4770075007
 H         -1.9993339649       -2.1411255960       -3.1815528039
 C         -0.4622196478       -3.6619858158       -2.0871091916
 H         -1.2680753798       -3.9492561044       -1.4016667557
 O         -0.8085058259       -4.1695871318       -3.3472420668
 H          0.0049650013       -4.1867639332       -3.8719444788
 C          0.8834739362       -4.2202714806       -1.6044778635
 H          0.7916919353       -5.3084015375       -1.4440431353
 O          1.8182523920       -3.9596112702       -2.6185270770
 H          2.7023993563       -3.9482109290       -2.2026761152
 C          2.6230506005       -4.0034386275        0.2522721769
 H          2.6051895267       -5.0863115663        0.4050833438
 H          2.8076141827       -3.5112872597        1.2145466721
 O          3.6567893005       -3.7376201623       -0.6534715659
 H          3.8326251938       -2.7717795062       -0.6578354210
 C         -2.5925493713        3.0697339821        0.4489138067
 H         -2.2771693506        3.8029535488       -0.3076313764
 C         -3.9402220977        1.0768846245        0.2636495856
 H         -4.8809092080        1.4201423461       -0.1927581347
 O         -2.8864712213        1.9006827836       -0.2396756339
 C         -3.7749061953        3.6693910970        1.2272057784
 H         -3.3688000564        4.4734567797        1.8597376995
 O         -4.6592832363        4.1875809431        0.2640236741
 H         -5.3764962253        4.6468033836        0.7163077906
 C         -4.4669200844        2.6426086586        2.1632172327
 H         -5.5514677958        2.7665333477        2.0354114830
 O         -4.1707111576        2.8966839421        3.5063956585
 H         -3.4705140251        2.2725628888        3.7624581917
 C         -4.0817394313        1.1935075254        1.7882279186
 H         -4.8702956252        0.5108064217        2.1229711619
 O         -2.9307074076        0.7936565303        2.4846962829
 H         -2.1869310355        1.3466810483        2.1804798706
 C         -3.6397145791       -0.3594791914       -0.1468580419
 H         -2.9490285218       -0.8030604635        0.5664814399
 H         -3.1817039954       -0.3750679500       -1.1312034577
 H         -4.5550295683       -0.9434409315       -0.1591726398
 H          3.6523636198       -0.4040136300       -1.0850439008
  72
  -125.09329547999999        2.4877107525291290E-004 !
 C          2.5054110451        1.8604544643       -0.7456458914
 H          3.2960812099        2.5827609299       -0.9937890316
 O          2.6249124591        0.8406766089       -1.6960542739
 H          1.7749691729        0.3547223604       -1.7240225932
 C          0.1492597201        2.0432759263       -0.2205554151
 H         -0.6552865318        2.0692272597       -0.9658879805
 O          1.3083912858        2.5682481352       -0.8676123640
 C          2.6917228235        1.3714613431        0.7162768801
 H          2.5825746999        2.2746436939        1.3332940998
 N          3.9780400207        0.7973275413        1.0499492042
 H          4.7348741318        1.4761228762        1.0014930911
 C          4.3155640820       -0.5233284493        0.7496225850
 O          4.1635145547       -1.0291923209       -0.5362466109
 C          5.4691972334       -1.0988592930        1.5011325045
 H          5.5776883880       -2.1490678400        1.2438368037
 H          5.3079263181       -1.0008575691        2.5723505289
 H          6.4118295358       -0.5941652009        1.2549379897
 C          1.5676255353        0.3897158856        1.0979843392
 H          1.9379799489       -0.6315610672        0.9328773555
 O          1.1950871651        0.5516557084        2.4493037372
 H          1.9747305542        0.3934078174        2.9939707145
 C          0.3001398822        0.5915564610        0.2446534692
 H         -0.5604771270        0.3335281287        0.8745149816
 O          0.2826617172       -0.2095492937       -0.9336694825
 C         -0.2227675416        2.9811902817        0.9468811195
 H         -0.0617535242        4.0108264248        0.6019610421
 H          0.4019369462        2.7821390999        1.8193281647
 O         -1.5406094639        2.8298776535        1.4236971865
 C          0.0730913549       -1.5732198024       -0.7910341045
 H         -0.7128723841       -1.7736616733       -0.0376453300
 C          1.2471305178       -3.5731971664       -0.2667282337
 H          0.4794648379       -3.8610969139        0.4713665012
 O          1.2864453014       -2.1653039994       -0.3834443342
 C         -0.3652744593       -2.1273607506       -2.1530892988
 H          0.4015137391       -1.8424087307       -2.8915702259
 O         -1.6102964814       -1.5849083622       -2.4939608917
 H         -1.9744813735       -2.1432034470       -3.1959649182
 C         -0.4503036602       -3.6643486244       -2.0974735961
 H         -1.2600114500       -3.9522928314       -1.4168546041
 O         -0.7923589002       -4.1655880221       -3.3613057724
 H          0.0235931954       -4.1831545131       -3.8821520536
 C          0.8918367695       -4.2282163647       -1.6111917509
 H          0.7961842289       -5.3166586666       -1.4550615196
 O          1.8311008159       -3.9671028634       -2.6209417917
 H          2.7135973950       -3.9560696556       -2.2012769654
 C          2.6281221419       -4.0171964395        0.2504283195
 H          2.6130339957       -5.1007589302        0.3982724277
 H          2.8098100185       -3.5289607836        1.2153216444
 O          3.6628501245       -3.7446489555       -0.6521982629
 H          3.8323843909       -2.7776083497       -0.6572681758
 C         -2.5814410679        3.1265700715        0.5043756398
 H         -2.2388003726        3.9039788378       -0.1941854242
 C         -3.9662384307        1.1797654444        0.1587613858
 H         -4.8941180299        1.5704576462       -0.2858795166
 O         -2.8915714875        2.0179421594       -0.2712981177
 C         -3.7610561397        3.6958749000        1.3095240501
 H         -3.3448126868        4.4378101625        2.0079583842
 O         -4.6159189631        4.3102389802        0.3768147743
 H         -5.3280984177        4.7527192709        0.8531310908
 C         -4.4950088757        2.6195960222        2.1540618703
 H         -5.5735681051        2.7748901318        2.0113683329
 O         -4.2260091446        2.7710418713        3.5184745584
 H         -3.5421096792        2.1179079513        3.7441041711
 C         -4.1297894580        1.1930456638        1.6853507100
 H         -4.9355810211        0.5038173100        1.9602571784
 O         -2.9971410738        0.7251985103        2.3697460794
 H         -2.2411359668        1.2879111848        2.1174780190
 C         -3.6830276661       -0.2290647836       -0.3470333608
 H         -2.9926770281       -0.7263867781        0.3296032177
 H         -3.2281856056       -0.1865835098       -1.3315396080
 H         -4.6045732273       -0.8012541642       -0.3935674904
 H          3.6448617061       -0.4013714591       -1.0846884137
  72
  -125.09329069000000        2.4751330640178235E-004 !
 C          2.5056115536        1.8595778207       -0.7618674943
 H          3.2977651327        2.5792238005       -1.0129330414
 O          2.6253483393        0.8342647746       -1.7061909653
 H          1.7761114918        0.3467046951       -1.7298614695
 C          0.1482227966        2.0489740210       -0.2444919310
 H         -0.6533623072        2.0674297580       -0.9932380878
 O          1.3099443384        2.5686864115       -0.8909971106
 C          2.6885764622        1.3796556751        0.7034747143
 H          2.5806745490        2.2872377829        1.3141504011
 N          3.9726040778        0.8039874956        1.0445548341
 H          4.7310855246        1.4808689728        0.9931971173
 C          4.3072438097       -0.5182778298        0.7475092513
 O          4.1734640203       -1.0216923081       -0.5410877669
 C          5.4433296613       -1.1030029610        1.5180091195
 H          5.2576099244       -1.0185884524        2.5864717759
 H          6.3907872743       -0.5945165194        1.3002162641
 H          5.5582337552       -2.1497781878        1.2499805175
 C          1.5617524215        0.4028813624        1.0900060453
 H          1.9315667414       -0.6201731851        0.9328864258
 O          1.1867214461        0.5754515870        2.4391149879
 H          1.9653101351        0.4217501250        2.9865296130
 C          0.2966822328        0.6010475063        0.2328001811
 H         -0.5663382817        0.3494303941        0.8617824067
 O          0.2806491489       -0.2081504647       -0.9400421736
 C         -0.2267844989        2.9980375940        0.9126703506
 H         -0.0746086644        4.0242708765        0.5537387877
 H          0.4032305121        2.8152281698        1.7848094734
 O         -1.5412229401        2.8436973017        1.3975164487
 C          0.0753053126       -1.5715448477       -0.7886272642
 H         -0.7038744932       -1.7702388512       -0.0280334672
 C          1.2586398496       -3.5661407001       -0.2660357844
 H          0.4962707290       -3.8534017347        0.4778523120
 O          1.2935700262       -2.1585253543       -0.3881787561
 C         -0.3737778072       -2.1328912435       -2.1442137552
 H          0.3837127413       -1.8463176627       -2.8914785099
 O         -1.6250114828       -1.5969524915       -2.4732883543
 H         -1.9919528511       -2.1554938274       -3.1736866014
 C         -0.4511333434       -3.6700233407       -2.0835968669
 H         -1.2543108878       -3.9595876942       -1.3959705454
 O         -0.8005854990       -4.1766482464       -3.3432265950
 H          0.0112797700       -4.1918353885       -3.8704995742
 C          0.8970118266       -4.2268864442       -1.6059698338
 H          0.8073733947       -5.3153579620       -1.4464003549
 O          1.8276119494       -3.9638474274       -2.6232306529
 H          2.7132115032       -3.9500851161       -2.2104348075
 C          2.6437763094       -4.0061988408        0.2433247637
 H          2.6312684516       -5.0891824691        0.3959742887
 H          2.8307057028       -3.5135210511        1.2048521010
 O          3.6725633515       -3.7357356969       -0.6667044974
 H          3.8437608280       -2.7690194330       -0.6721907577
 C         -2.5882501339        3.0964652622        0.4719326213
 H         -2.2547672288        3.8473394382       -0.2591484270
 C         -3.9577704337        1.1254180863        0.2147620427
 H         -4.8907809963        1.4876031641       -0.2429245444
 O         -2.8927844876        1.9542992215       -0.2557243069
 C         -3.7690375104        3.6897540945        1.2576770410
 H         -3.3559119338        4.4638285299        1.9222862882
 O         -4.6324288948        4.2575743583        0.3035808021
 H         -5.3464760933        4.7138754642        0.7638118455
 C         -4.4910293438        2.6447306179        2.1500322455
 H         -5.5714414907        2.7857107602        2.0063955621
 O         -4.2164972084        2.8551653845        3.5054629147
 H         -3.5276452967        2.2158839546        3.7547624767
 C         -4.1167414389        1.2024816181        1.7400074647
 H         -4.9169845234        0.5200165736        2.0463887250
 O         -2.9790207412        0.7711550165        2.4397724317
 H         -2.2260486045        1.3243911310        2.1593390041
 C         -3.6629868776       -0.3018531379       -0.2299686935
 H         -2.9760456805       -0.7665682916        0.4732504225
 H         -3.2014680887       -0.2966769326       -1.2125388890
 H         -4.5811202951       -0.8807084789       -0.2594956882
 H          3.6521644803       -0.3980604376       -1.0921593658
  72
  -125.09322184000000        2.3012154571347223E-004 !
 C          2.4235147872        1.1250001528       -1.6955474373
 H          3.2091513437        1.7151044950       -2.1878786354
 O          2.6612687731       -0.1988738811       -2.0778576344
 H          1.8458481728       -0.7163916986       -1.9143439699
 C          0.0241204879        1.3211576179       -1.4912310476
 H         -0.6855928312        0.9256393766       -2.2297800735
 O          1.2210924705        1.6232393009       -2.2027486547
 C          2.4868606580        1.3538797946       -0.1608568314
 H          2.2859668623        2.4261862114       -0.0262402120
 N          3.7531748152        1.0857754864        0.4871488763
 H          4.4838579953        1.7349632878        0.2032515908
 C          4.1716168605       -0.2043989380        0.8184342145
 O          4.2014767238       -1.2172606736       -0.1327351054
 C          5.2420637536       -0.3063539777        1.8529490870
 H          5.4347432765       -1.3534120525        2.0688688570
 H          4.9361347630        0.2033337077        2.7639459767
 H          6.1828154614        0.1449967869        1.5144969157
 C          1.3669098398        0.5646411252        0.5427235662
 H          1.7907273174       -0.3896888903        0.8874116836
 O          0.8550245489        1.2869286953        1.6408734461
 H          1.5805981044        1.4581903754        2.2524090153
 C          0.1849549197        0.2603590443       -0.3974128701
 H         -0.7278846239        0.2522477968        0.2117210155
 O          0.3056333821       -0.9941660214       -1.0607947977
 C         -0.5658847285        2.6261464061       -0.9217526485
 H         -0.5427141984        3.3769375547       -1.7183463858
 H          0.0182107418        2.9879724489       -0.0733820203
 O         -1.9101937489        2.4184677899       -0.5285265505
 C          0.1433848684       -2.1395046086       -0.2912075025
 H         -0.6469268129       -1.9891036953        0.4693027730
 C          1.3961316192       -3.6124025812        1.0884885389
 H          0.6235471014       -3.5737148408        1.8748065652
 O          1.3725420741       -2.4135208213        0.3399449997
 C         -0.2698704533       -3.2788355106       -1.2309233128
 H          0.4629093156       -3.3202427895       -2.0525409798
 O         -1.5540333100       -3.0022755269       -1.7192884089
 H         -1.8903814553       -3.8233072181       -2.1053933541
 C         -0.2560146390       -4.6268995491       -0.4861014416
 H         -1.0564411407       -4.6275394276        0.2629647830
 O         -0.5438546514       -5.6673472245       -1.3806403312
 H          0.2795751447       -5.8658359482       -1.8493112309
 C          1.1097513901       -4.8229109576        0.1863362737
 H          1.0798195875       -5.7300608037        0.8142677543
 O          2.0531844776       -4.9783835384       -0.8412753892
 H          2.9225409857       -4.7194771298       -0.4784089009
 C          2.7827109727       -3.6985484452        1.7529865613
 H          2.8207690082       -4.6058346938        2.3626026300
 H          2.9098661910       -2.8261766980        2.4044545634
 O          3.8261144733       -3.7866683290        0.8235273014
 H          3.9617644759       -2.9023169540        0.4209593211
 C         -2.1783195601        2.5716238952        0.8541659114
 H         -1.3968395633        2.0975991645        1.4621982769
 C         -3.1516533744        4.7779610113        0.7006836519
 H         -3.3921424316        5.4497388656        1.5343684308
 O         -2.1564190175        3.9051457565        1.2479511521
 C         -3.5155750388        1.8547840858        1.1291941570
 H         -3.7413985193        1.2252411562        0.2517984937
 O         -3.3604457052        1.0433585430        2.2646339949
 H         -4.2409210967        0.7576539072        2.5411864959
 C         -4.6537316390        2.8768131166        1.3066282559
 H         -4.6297439596        3.2599509864        2.3326801310
 O         -5.9059231163        2.2664390209        1.1283128095
 H         -6.0679509690        2.2169627564        0.1755794013
 C         -4.4391438877        4.0284673328        0.3096233471
 H         -5.2864882688        4.7207149764        0.3716807676
 O         -4.4602570893        3.5415202609       -1.0086529506
 H         -3.6248213988        3.0761031418       -1.1765849479
 C         -2.5944428140        5.6078145297       -0.4548466934
 H         -2.3913468382        4.9855518599       -1.3213917967
 H         -1.6720702221        6.0874563530       -0.1401884080
 H         -3.3194192840        6.3673175971       -0.7344995342
 H          3.7023448507       -0.9413574310       -0.9317627027
  72
  -125.09322080000000        2.2986843104814506E-004 !
 C          3.4862664031        2.2650877633        0.3526050222
 H          4.0296938952        3.1904024242        0.6052531399
 O          3.7364690750        1.8937834072       -0.9708931471
 H          3.3730392504        2.5683909374       -1.5568335403
 C          1.2464686187        1.4876099219        0.3706009770
 H          1.3104488407        1.1283002421       -0.6650518637
 O          2.1420678614        2.5766166967        0.5762917299
 C          3.9596861255        1.1195356356        1.2566576259
 H          3.8617267045        1.4329638006        2.3027320229
 N          5.3520833966        0.8204557853        0.9740580866
 H          5.4833125442        0.6849559173       -0.0216460776
 C          5.9465714087       -0.2096108233        1.7424404981
 O          6.2819742892        0.1567125224        3.0385494460
 C          6.9561118188       -1.0881749140        1.0720069009
 H          7.3117251751       -1.8231364809        1.7890895205
 H          7.8206883270       -0.5154958951        0.7193231251
 H          6.5126403382       -1.6015166937        0.2216307013
 C          3.0505654119       -0.1046054001        1.0211558246
 H          3.1326015718       -0.3776772745       -0.0452700621
 O          3.4152500708       -1.1845153013        1.8300298458
 H          4.4073767381       -1.1299932257        1.9669986450
 C          1.6026585390        0.3241017858        1.3190339630
 H          1.5497444919        0.6828473865        2.3545011521
 O          0.6593393218       -0.7284100770        1.2856462075
 C         -0.1634324579        2.0352549124        0.5946673961
 H         -0.1727956397        3.0951752908        0.3109892558
 H         -0.4482965041        1.9561790463        1.6477994184
 O         -1.0494027669        1.3037731790       -0.2260395265
 C          0.7731301365       -1.6821279167        0.2764153249
 H          1.7725390728       -2.1589823200        0.2921784163
 C          0.1314698363       -1.9209770826       -1.9960340053
 H          0.8091192549       -2.7839659518       -2.0629821113
 O          0.5751243497       -1.0524102362       -0.9676494815
 C         -0.2803880156       -2.7773695465        0.5691392332
 H         -0.4881304688       -2.7344174557        1.6473925541
 O          0.1564302938       -4.0538415191        0.1816076515
 H          0.9157855449       -4.3031788310        0.7217085411
 C         -1.5714657309       -2.4571905178       -0.1935255226
 H         -2.3258511398       -3.2163412472        0.0354536368
 O         -2.1076717942       -1.2368128642        0.2349714157
 H         -1.4391468184       -0.5353861399        0.0996858668
 C         -1.3002332558       -2.4512078263       -1.7189823744
 H         -1.3682294432       -3.4765065223       -2.0935196470
 O         -2.2945025982       -1.7229359773       -2.3902071766
 H         -2.3898314309       -0.8551789959       -1.9573894034
 C          0.1970543722       -1.0934616273       -3.2922419476
 H          1.2431481191       -0.9028121477       -3.5412006958
 H         -0.2953288813       -0.1307095742       -3.0957627974
 O         -0.3690510966       -1.7466741417       -4.3899947533
 H         -1.3029709682       -1.8960057006       -4.1770259992
 C         -2.3626861567        1.7823518602       -0.2943407424
 H         -2.3694126442        2.8601600114       -0.5610381886
 C         -4.2965540617        1.2165297697       -1.5667950571
 H         -4.4756445825        2.2893306545       -1.7438602178
 O         -2.9095256525        1.0130799604       -1.3279953313
 C         -3.1181953123        1.6188940681        1.0419262663
 H         -2.8544455737        0.6377871587        1.4669142756
 O         -2.7088538596        2.6483087938        1.9128500316
 H         -3.3420087603        2.6656650654        2.6437647477
 C         -4.6467910279        1.6816922737        0.8550122952
 H         -4.9351712142        2.7230660622        0.6665560997
 O         -5.2813120307        1.2941773788        2.0470031948
 H         -5.3670451520        0.3287915741        2.0143162530
 C         -5.0835044226        0.7885218936       -0.3183923975
 H         -6.1578216705        0.9199014817       -0.4899277751
 O         -4.9072537502       -0.5612949106        0.0071730999
 H         -3.9579441891       -0.7889261683       -0.0277767920
 C         -4.6853603093        0.4054419140       -2.7940030355
 H         -4.0128723044        0.6337941600       -3.6149972372
 H         -5.7029500347        0.6509579433       -3.0826586856
 H         -4.6232673952       -0.6562605432       -2.5737307072
 H          5.9957774700        1.0615367159        3.2025989784
  72
  -125.09315899000001        2.1531457174138252E-004 !
 C          2.6093326253        1.8534259076       -0.5856404033
 H          3.3755686211        2.5984803916       -0.8421273489
 O          2.6952740813        0.8753886665       -1.5835864020
 H          1.8578064670        0.3673661229       -1.5796775152
 C          0.2783320716        1.9564532636        0.0439318499
 H         -0.5472786166        1.9800445790       -0.6777755089
 O          1.3976747597        2.5453582808       -0.6171663313
 C          2.8730789039        1.3053205521        0.8422629749
 H          2.7676200316        2.1757581603        1.5048779156
 N          4.1870425682        0.7512089636        1.0910393711
 H          4.9241354554        1.4515481802        1.0518179100
 C          4.5466500585       -0.5440065812        0.7162398236
 O          4.3342504400       -1.0021982246       -0.5799579912
 C          5.7625949681       -1.1080981375        1.3721904966
 H          5.8839515151       -2.1456195687        1.0726564914
 H          5.6681261939       -1.0500519333        2.4540921563
 H          6.6726527993       -0.5673692385        1.0832313631
 C          1.7927530970        0.2755093342        1.2234503428
 H          2.1771773725       -0.7239435797        0.9761893200
 O          1.4953084578        0.3422252364        2.5995833467
 H          2.3171102549        0.2119090926        3.0870591898
 C          0.4785875128        0.4937628517        0.4486573454
 H         -0.3517211562        0.2147795207        1.1093743256
 O          0.4104909063       -0.2657603236       -0.7583020336
 C         -0.0968110995        2.8246929374        1.2627090722
 H         -0.0569871258        3.8763304773        0.9483566698
 H          0.6030557928        2.6585190666        2.0824917052
 O         -1.3543510038        2.5225153263        1.8198232182
 C          0.2349426815       -1.6372099240       -0.6549389362
 H         -0.5058484683       -1.8787440494        0.1316160010
 C          1.4787069019       -3.6300900865       -0.2725889490
 H          0.7637625495       -3.9639279306        0.4984518809
 O          1.4801207911       -2.2188278278       -0.3381173009
 C         -0.2625527045       -2.1532078055       -2.0116832692
 H          0.4607521119       -1.8294606688       -2.7773798855
 O         -1.5325587131       -1.6232080384       -2.2750158299
 H         -1.9305122684       -2.1831111442       -2.9577249911
 C         -0.3192089095       -3.6918017187       -2.0044595000
 H         -1.0821759304       -4.0181984517       -1.2880624036
 O         -0.7273918665       -4.1553081338       -3.2633050355
 H          0.0578376234       -4.1443090703       -3.8296684181
 C          1.0586805410       -4.2455710169       -1.6171228013
 H          0.9916526229       -5.3404943018       -1.4947457896
 O          1.9324456058       -3.9313819933       -2.6695898114
 H          2.8365776521       -3.9043536633       -2.2990397599
 C          2.8988349383       -4.0571734933        0.1439692064
 H          2.9196404066       -5.1459476380        0.2461572734
 H          3.1252125569       -3.6038352531        1.1161378392
 O          3.8705472777       -3.7188876897       -0.8055598313
 H          4.0228320178       -2.7494819824       -0.7718556618
 C         -2.4595861356        2.7412456273        1.0129485116
 H         -2.2692711763        3.5435461702        0.2738399306
 C         -3.8946117451        1.5863151291       -0.4856868033
 H         -3.8082672885        2.4471100633       -1.1674768857
 O         -2.7449667231        1.5301401683        0.3445410435
 C         -3.6255253660        3.1893658682        1.9110506055
 H         -3.6557145620        2.5146556384        2.7816887658
 O         -3.3601537847        4.5038375689        2.3249880799
 H         -4.1548636315        4.8304761427        2.7677829265
 C         -4.9750344218        3.1273032333        1.1659680528
 H         -5.0195289196        3.9592941227        0.4537754657
 O         -6.0326437875        3.3167197903        2.0724615293
 H         -6.2324803246        2.4504129840        2.4568074836
 C         -5.1137993084        1.7851260020        0.4282311391
 H         -6.0469493955        1.7728162855       -0.1440675208
 O         -5.2000560514        0.7423308178        1.3706066043
 H         -4.2902652069        0.4876463995        1.5857713876
 C         -3.9775165654        0.2857416470       -1.2716224259
 H         -2.9980600622        0.0245903923       -1.6616643062
 H         -4.6811275802        0.3969528684       -2.0911857815
 H         -4.3144593791       -0.5189577088       -0.6233602309
 H          3.7751659525       -0.3638957769       -1.0734671275
  72
  -125.09308686999999        1.9949378265369535E-004 !
 C          3.5396524667        2.1645295963        0.2568561141
 H          4.1014930629        3.0828427580        0.4924288362
 O          3.7692669961        1.7702737781       -1.0632929967
 H          3.4251627138        2.4499656281       -1.6550389603
 C          1.2844053525        1.4313181499        0.3069638867
 H          1.3246203809        1.0622410276       -0.7263350351
 O          2.2017877106        2.5055007643        0.4877273787
 C          4.0019874946        1.0250358353        1.1788274673
 H          3.8934487948        1.3527648272        2.2195290834
 N          5.3958890970        0.7587675972        0.9479535601
 H          5.5842238430        0.5216571340       -0.0181313358
 C          6.0700504875       -0.0915668416        1.8548723866
 O          5.6311508448        0.0268645853        3.1686172920
 C          7.5359036688       -0.2656755435        1.6342134052
 H          7.8939694502       -1.1246720253        2.1999318131
 H          8.1141374211        0.6144241691        1.9502226704
 H          7.7356969703       -0.4371980440        0.5805102976
 C          3.0785854179       -0.1880872258        0.9418280836
 H          3.1410420395       -0.4680585870       -0.1173315204
 O          3.4537699382       -1.3173208837        1.6822778991
 H          3.8903309948       -1.0329998660        2.4969595877
 C          1.6390442090        0.2704120329        1.2588736612
 H          1.5993370651        0.6412850393        2.2914820963
 O          0.6825380562       -0.7746998619        1.2500072814
 C         -0.1121878986        2.0062173281        0.5489438793
 H         -0.1082884172        3.0623115833        0.2512931066
 H         -0.3801226184        1.9462802930        1.6079347117
 O         -1.0259878854        1.2797413983       -0.2454284563
 C          0.7516200980       -1.7224595249        0.2299356519
 H          1.7446040116       -2.2112983100        0.2071922854
 C          0.0510090087       -1.9474271467       -2.0236865958
 H          0.7241476385       -2.8125448155       -2.1075470605
 O          0.5190868821       -1.0829736917       -1.0031980512
 C         -0.3078959696       -2.8046869882        0.5493366194
 H         -0.4894719566       -2.7597779508        1.6326810389
 O          0.1017930885       -4.0871500898        0.1524719256
 H          0.8946066010       -4.3301764360        0.6455782698
 C         -1.6128541196       -2.4689063518       -0.1830825197
 H         -2.3722000348       -3.2166572287        0.0661942957
 O         -2.1220901560       -1.2390977650        0.2519970953
 H         -1.4461681283       -0.5487984693        0.0960874617
 C         -1.3762458588       -2.4718643171       -1.7141991466
 H         -1.4579286003       -3.4983566202       -2.0823511606
 O         -2.3824228311       -1.7413772221       -2.3653808957
 H         -2.4508736112       -0.8657788262       -1.9433828915
 C          0.0911245914       -1.1175162644       -3.3192541086
 H          1.1323389252       -0.9323622930       -3.5913997869
 H         -0.3909897923       -0.1523725559       -3.1096123114
 O         -0.5040119650       -1.7652411118       -4.4052892850
 H         -1.4326555917       -1.9134815256       -4.1691139998
 C         -2.3294739603        1.7834050023       -0.3032710873
 H         -2.3185472529        2.8603774194       -0.5730988753
 C         -4.2853189061        1.2552973046       -1.5565220119
 H         -4.4429682661        2.3320540358       -1.7302016333
 O         -2.9011826834        1.0220409656       -1.3297363623
 C         -3.0759658927        1.6376993363        1.0403586646
 H         -2.8261849196        0.6531508129        1.4657321761
 O         -2.6389709787        2.6616468583        1.9043561905
 H         -3.2632786631        2.6913508913        2.6423866472
 C         -4.6049610379        1.7274815920        0.8676191212
 H         -4.8768544848        2.7737382558        0.6817591538
 O         -5.2353388834        1.3509119272        2.0654657419
 H         -5.3383045017        0.3871920455        2.0329395881
 C         -5.0690037995        0.8419361835       -0.3011311235
 H         -6.1423208700        0.9924009819       -0.4630488968
 O         -4.9141459771       -0.5107603916        0.0236235664
 H         -3.9690539904       -0.7551202014       -0.0152332473
 C         -4.7025848473        0.4553657600       -2.7818081090
 H         -5.7150666281        0.7274187792       -3.0643541448
 H         -4.6667740002       -0.6077879201       -2.5629243212
 H         -4.0293933303        0.6671925176       -3.6066872385
 H          6.3366848531        0.3715701425        3.7319530147
  72
  -125.09308674000000        1.9946634111554703E-004 !
 C          3.5413139585        2.1607957587        0.2493182902
 H          4.1033390903        3.0799392603        0.4811318748
 O          3.7716756544        1.7605023017       -1.0688718192
 H          3.4282608820        2.4377189179       -1.6638476547
 C          1.2855827410        1.4289708753        0.3003253148
 H          1.3253272823        1.0571346015       -0.7319854582
 O          2.2034054144        2.5032963416        0.4778753916
 C          4.0020148327        1.0252323307        1.1769056720
 H          3.8910130737        1.3572944518        2.2159463797
 N          5.3965995115        0.7583704710        0.9505746817
 H          5.5870456781        0.5149809520       -0.0135644312
 C          6.0693808414       -0.0857681143        1.8643612920
 O          5.6263052165        0.0391988480        3.1760814228
 C          7.5361202166       -0.2586424186        1.6488733209
 H          7.8943091843       -1.1118480888        2.2232033924
 H          8.1119773255        0.6254337490        1.9581600884
 H          7.7387585038       -0.4394816109        0.5972257291
 C          3.0794019817       -0.1889325306        0.9425202864
 H          3.1441932582       -0.4727205749       -0.1154687928
 O          3.4534105823       -1.3153748496        1.6878704123
 H          3.8874554206       -1.0278048082        2.5026879665
 C          1.6391213888        0.2702400341        1.2553731429
 H          1.5973305443        0.6430360523        2.2872221955
 O          0.6830179268       -0.7752488173        1.2469579820
 C         -0.1104077217        2.0056453743        0.5415784394
 H         -0.1056258239        3.0608946387        0.2410135379
 H         -0.3774382766        1.9490208177        1.6009837130
 O         -1.0258440947        1.2780599832       -0.2499025409
 C          0.7522024600       -1.7235143102        0.2273026767
 H          1.7453388949       -2.2120864692        0.2045860923
 C          0.0493263923       -1.9493075864       -2.0259344230
 H          0.7222732927       -2.8144624920       -2.1105785601
 O          0.5189856850       -1.0848767115       -1.0060459636
 C         -0.3069512040       -2.8058355825        0.5477473363
 H         -0.4872917237       -2.7610806511        1.6312612841
 O          0.1022627797       -4.0881436346        0.1501322804
 H          0.8949731202       -4.3318714831        0.6430301861
 C         -1.6126859819       -2.4699959517       -0.1832881792
 H         -2.3718003822       -3.2177372752        0.0666566633
 O         -2.1215457531       -1.2401469445        0.2519632103
 H         -1.4459424516       -0.5497360560        0.0950478582
 C         -1.3777639010       -2.4732976862       -1.7146871576
 H         -1.4601478636       -3.4999988657       -2.0820702456
 O         -2.3847066988       -1.7429872647       -2.3647764801
 H         -2.4527466301       -0.8673876479       -1.9427935274
 C          0.0877453348       -1.1190046617       -3.3214074931
 H          1.1286996358       -0.9342687623       -3.5948133585
 H         -0.3936947190       -0.1536091898       -3.1108849474
 O         -0.5087230700       -1.7662109140       -4.4069922435
 H         -1.4370871499       -1.9142801404       -4.1697990142
 C         -2.3290788373        1.7826986103       -0.3064448482
 H         -2.3176748157        2.8589738830       -0.5790086097
 C         -4.2882672250        1.2510923889       -1.5539122653
 H         -4.4468394465        2.3271027460       -1.7313513768
 O         -2.9035469773        1.0191276174       -1.3298249821
 C         -3.0728364096        1.6411201737        1.0391245296
 H         -2.8230597993        0.6574029915        1.4664775865
 O         -2.6333581711        2.6668336030        1.8997059113
 H         -3.2564589307        2.6990729062        2.6386542795
 C         -4.6020601681        1.7318431274        0.8694793854
 H         -4.8732203944        2.7776643967        0.6801418137
 O         -5.2302512115        1.3605354967        2.0701822692
 H         -5.3347944285        0.3968526777        2.0413664373
 C         -5.0689835488        0.8424732483       -0.2951043567
 H         -6.1425959943        0.9928764119       -0.4550394531
 O         -4.9139600746       -0.5091342393        0.0340510746
 H         -3.9692318315       -0.7544522567       -0.0074121205
 C         -4.7083920248        0.4463040554       -2.7750110875
 H         -4.6705367501       -0.6160499270       -2.5524476089
 H         -4.0380624200        0.6561024950       -3.6027348076
 H         -5.7221603225        0.7161819617       -3.0552106173
 H          6.3298315768        0.3872238162        3.7398290912
  72
  -125.09308607000000        1.9932497148547604E-004 !
 C          3.5438340967        2.1621714155        0.2482813957
 H          4.1063733934        3.0808197218        0.4808746956
 O          3.7766212309        1.7608726052       -1.0691344689
 H          3.4357976548        2.4382714941       -1.6653862838
 C          1.2864406830        1.4335224474        0.2958383789
 H          1.3268195409        1.0606241941       -0.7360791029
 O          2.2058182045        2.5065181196        0.4737414568
 C          4.0011686741        1.0266402519        1.1775418421
 H          3.8887097234        1.3594833471        2.2161829557
 N          5.3957186302        0.7568636112        0.9541688457
 H          5.5877339464        0.5138594937       -0.0097585816
 C          6.0633127953       -0.0906812557        1.8686541964
 O          5.6192695779        0.0365688439        3.1799115204
 C          7.5293308796       -0.2715972019        1.6554050543
 H          7.8810099241       -1.1304436335        2.2253889018
 H          8.1098678477        0.6069000016        1.9717395442
 H          7.7334230032       -0.4471303715        0.6031801846
 C          3.0770465718       -0.1861222181        0.9419734459
 H          3.1431162499       -0.4700941705       -0.1158839801
 O          3.4480482966       -1.3131105472        1.6879503860
 H          3.8801731639       -1.0260781684        2.5040746218
 C          1.6369792670        0.2751620764        1.2524101464
 H          1.5941258361        0.6490948844        2.2837906444
 O          0.6798984272       -0.7694197598        1.2435313490
 C         -0.1086864437        2.0132151875        0.5348954731
 H         -0.1030309089        3.0666298688        0.2276625598
 H         -0.3746319043        1.9635543289        1.5949280597
 O         -1.0258111146        1.2818087021       -0.2510443182
 C          0.7514254676       -1.7197938197        0.2259774141
 H          1.7447569263       -2.2079510129        0.2060956631
 C          0.0511506390       -1.9502390093       -2.0273706865
 H          0.7228219108       -2.8167293172       -2.1083197609
 O          0.5202392563       -1.0836520291       -1.0091296912
 C         -0.3075221880       -2.8022141875        0.5466091504
 H         -0.4888545105       -2.7563295400        1.6299073185
 O          0.1026470247       -4.0848411800        0.1509242048
 H          0.8951755188       -4.3274057587        0.6447339398
 C         -1.6127926607       -2.4674067197       -0.1855699529
 H         -2.3721671612       -3.2147817281        0.0646498304
 O         -2.1213941084       -1.2370810353        0.2487372328
 H         -1.4453400060       -0.5470279427        0.0922299227
 C         -1.3769539012       -2.4718369651       -1.7168327531
 H         -1.4609242068       -3.4984709587       -2.0842640953
 O         -2.3817460188       -1.7395099677       -2.3680242721
 H         -2.4492234342       -0.8640633003       -1.9456726109
 C          0.0926774194       -1.1243211576       -3.3255332735
 H          1.1341981605       -0.9414887508       -3.5978561337
 H         -0.3883022909       -0.1578353528       -3.1194205690
 O         -0.5025521754       -1.7750353528       -4.4097527211
 H         -1.4316882039       -1.9199939364       -4.1743861895
 C         -2.3300296846        1.7843861808       -0.3041760511
 H         -2.3209144881        2.8614616714       -0.5735397498
 C         -4.2901973590        1.2542156635       -1.5500858189
 H         -4.4501831728        2.3307131765       -1.7232582691
 O         -2.9048706592        1.0229470861       -1.3288493035
 C         -3.0712814894        1.6373371655        1.0422402763
 H         -2.8184696985        0.6530845888        1.4664435420
 O         -2.6323808971        2.6616250673        1.9049012349
 H         -3.2531714760        2.6893284384        2.6459543728
 C         -4.6011052004        1.7251485728        0.8758864038
 H         -4.8752390229        2.7712336921        0.6923208019
 O         -5.2259499650        1.3461173053        2.0759033333
 H         -5.3285049128        0.3823566047        2.0419738690
 C         -5.0687789754        0.8400947391       -0.2917869879
 H         -6.1427298336        0.9903161893       -0.4496375933
 O         -4.9123980436       -0.5127046121        0.0317416612
 H         -3.9673032218       -0.7565520075       -0.0107481899
 C         -4.7108853193        0.4535528515       -2.7736675460
 H         -4.0434324786        0.6692577571       -3.6022469876
 H         -5.7263328591        0.7212342731       -3.0499600323
 H         -4.6687928897       -0.6096265170       -2.5558009724
 H          6.3241436529        0.3808053076        3.7443010512
  72
  -125.09292205000000        1.6756501034584891E-004 !
 C          3.2686126561        2.4193982989        0.2694829538
 H          3.9540797452        3.1538894735        0.7145000086
 O          3.0827080475        2.6542008072       -1.0905428828
 H          2.8222772326        3.5733911189       -1.2233356314
 C          1.0503334114        1.6787685090        0.5872419138
 H          0.8055874800        1.8513519001       -0.4727497836
 O          2.0689597932        2.5685898401        0.9968320294
 C          3.8444613601        1.0079882614        0.4496975997
 H          4.0083789771        0.8390229143        1.5168663142
 N          5.1315349841        0.9065403534       -0.2265244606
 H          4.9955382637        0.8394254868       -1.2291980542
 C          6.0930401996        0.0057898043        0.2303294430
 O          6.1642751827       -1.2396886614       -0.3502497597
 C          6.6250532918        0.1557388328        1.6134805308
 H          6.0126999879       -0.3760975384        2.3529527541
 H          6.6644623335        1.2081118464        1.8787144424
 H          7.6257986856       -0.2688612761        1.6616839818
 C          2.8012913010       -0.0031874522       -0.0632938558
 H          2.6074803432        0.2042353358       -1.1292467967
 O          3.3310173375       -1.2981395732        0.0883159474
 H          2.6408014453       -1.9530114251       -0.1139291415
 C          1.4904992337        0.2088809272        0.7181528419
 H          1.6567568598       -0.0438517002        1.7743956268
 O          0.4160049005       -0.5622549445        0.2045778532
 C         -0.1799723502        2.0022628022        1.4350298085
 H         -0.3149610955        3.0903687685        1.4456013614
 H         -0.0295640022        1.6557984431        2.4648885014
 O         -1.3145939980        1.3731000911        0.8757796188
 C          0.2934052217       -1.9021895700        0.6016791837
 H          0.7712546610       -2.0591088404        1.5783147029
 C          0.3324502818       -3.1230710838       -1.5058666357
 H          1.0289265205       -3.8572107270       -1.9248977897
 O          0.9781073720       -2.7624720618       -0.2817848462
 C         -1.1942318082       -2.2520492826        0.7181208610
 H         -1.7796627065       -1.5661674020        0.0877207689
 O         -1.5956703365       -2.1104014085        2.0585392135
 H         -2.3369408671       -2.7218627237        2.1861191839
 C         -1.4134143041       -3.6960592144        0.2408219595
 H         -0.7931088772       -4.3701323206        0.8426270697
 O         -2.7503810357       -4.0607812910        0.4422666268
 H         -3.2271504540       -3.8144309650       -0.3690464173
 C         -1.0402669641       -3.8054694302       -1.2538695766
 H         -0.9721987229       -4.8687657624       -1.5106701641
 O         -2.0928114452       -3.3170750262       -2.0375694530
 H         -2.0777874964       -2.3441464525       -2.0452685895
 C          0.2560725286       -1.9645819166       -2.5239792745
 H         -0.0440483369       -2.3863619048       -3.4862667106
 H          1.2625203335       -1.5382562237       -2.6266651986
 O         -0.6819697780       -0.9644650349       -2.2234996260
 H         -0.3933573268       -0.5136481632       -1.4093968513
 C         -2.5400520935        1.7994834285        1.4475021840
 H         -2.4327633697        1.8560036985        2.5409259527
 C         -3.7589535379        3.1884496757       -0.0878859702
 H         -4.7884286299        3.1361900752        0.2972331754
 O         -2.8637455151        3.0814393895        1.0203066599
 C         -3.5917242498        0.7336263660        1.1136133653
 H         -3.1596296708       -0.2331342285        1.4020428564
 O         -4.7263983748        1.0300973176        1.8919901867
 H         -5.3479043353        0.2958663869        1.8298699652
 C         -3.9287646752        0.6961392802       -0.4009245347
 H         -5.0142597211        0.5359454095       -0.4843050273
 O         -3.2826483042       -0.3681152445       -1.0433942557
 H         -2.6124451162        0.0210570621       -1.6371297265
 C         -3.5653224688        2.0367621631       -1.0854148171
 H         -4.2207209068        2.1971385851       -1.9479486527
 O         -2.2660886677        1.9773317100       -1.6100154678
 H         -1.6575566577        1.8790094552       -0.8527892002
 C         -3.5056131981        4.5411289525       -0.7391021335
 H         -4.2879820447        4.7584859119       -1.4599509588
 H         -2.5449572285        4.5285260556       -1.2473692638
 H         -3.4931013246        5.3116179511        0.0254817087
 H          5.2626535193       -1.5672404100       -0.5105279568
  72
  -125.09291365000000        1.6608215254172354E-004 !
 C          3.0604779103        1.9764277951        0.9223283286
 H          3.8316118994        2.4512982934        1.5501447172
 O          2.7351457080        2.7996600793       -0.1616599668
 H          2.2825288390        3.5843918444        0.1700982848
 C          0.8763080703        1.1270754372        1.1867869489
 H          0.5242205215        1.7126225574        0.3261321877
 O          1.9796097824        1.7840811215        1.7923189469
 C          3.5934621374        0.6417710016        0.3563058334
 H          3.9833440129        0.0484522490        1.1908179763
 N          4.6824360495        0.8528777597       -0.5980197651
 H          4.3094921934        1.2617601737       -1.4486015287
 C          5.8348430774        1.5052855906       -0.1732362417
 O          5.9444941779        2.8791818532       -0.3611248681
 C          6.6155771644        0.9613881083        0.9708266142
 H          7.6126883477        1.3943438298        0.9543345157
 H          6.6886210050       -0.1185200144        0.8776302831
 H          6.1691016000        1.1999643990        1.9450686511
 C          2.4463363007       -0.1196513323       -0.3243381846
 H          2.0900518978        0.4575370777       -1.1851472823
 O          2.8670316999       -1.3424559822       -0.8529727138
 H          3.1313893924       -1.9352409238       -0.1391799858
 C          1.2929748384       -0.2691942518        0.6899148534
 H          1.6508275086       -0.8607259819        1.5453011105
 O          0.1660673979       -0.9023018337        0.1083790018
 C         -0.2470305392        1.0759737773        2.2352175448
 H         -0.0665497336        1.8883318726        2.9507098794
 H         -0.2379000786        0.1235709630        2.7690059211
 O         -1.5378640993        1.1795780749        1.6873902016
 C         -0.1790874346       -2.1755848080        0.6012627650
 H         -0.0135091502       -2.2099199704        1.6890769750
 C          0.2827357518       -3.7518932135       -1.1751956398
 H          1.0257044225       -4.5481294161       -1.2876707951
 O          0.6394765590       -3.1861072023        0.0859612129
 C         -1.6690078579       -2.4232970615        0.3365880996
 H         -1.9817900281       -1.8982515329       -0.5760831593
 O         -2.4193570544       -1.9387060829        1.4253000457
 H         -3.2392321904       -2.4574845272        1.4420458916
 C         -1.8723808193       -3.9349022788        0.1513919668
 H         -1.4712018480       -4.4630573459        1.0238026084
 O         -3.2382471814       -4.2287860904        0.0715805772
 H         -3.4730273296       -4.1877136883       -0.8715204769
 C         -1.1404997444       -4.3752759095       -1.1377084485
 H         -1.0678190865       -5.4690531713       -1.1323340007
 O         -1.9428368109       -4.0656169751       -2.2461084715
 H         -1.7710987502       -3.1419594734       -2.5095946740
 C          0.4988830320       -2.7895650754       -2.3641909653
 H          0.4795818989       -3.3834466082       -3.2818859740
 H          1.4885644860       -2.3379012567       -2.2500084633
 O         -0.4943452829       -1.8021228948       -2.5222137870
 H         -0.4057716575       -1.1412113413       -1.8175033253
 C         -1.9740457654        2.4795342318        1.3479295594
 H         -1.6325227197        3.1841486986        2.1291052367
 C         -2.1973212747        2.7634088237       -1.0332725518
 H         -2.9122792100        3.5946656762       -1.1028904089
 O         -1.4166166871        2.9423646397        0.1584335133
 C         -3.5106123889        2.4260008441        1.3124379136
 H         -3.8550083844        2.0096285694        2.2703098342
 O         -4.0571529061        3.7010978984        1.0863754630
 H         -3.8124240230        4.2920167960        1.8077284469
 C         -4.0038432585        1.4856926675        0.1864397544
 H         -4.9471742699        1.9126679861       -0.1708312304
 O         -4.3058184537        0.2143522655        0.6667938075
 H         -3.4821823737       -0.2614240600        0.8772432179
 C         -2.9880320041        1.4466326475       -0.9904736125
 H         -3.5320981779        1.3307452571       -1.9326434520
 O         -2.1424077862        0.3333245234       -0.9183079871
 H         -1.6300921099        0.3855973257       -0.0928220326
 C         -1.2272169210        2.7941265330       -2.2060562478
 H         -0.6355607219        1.8820174606       -2.2175292680
 H         -0.5651605904        3.6499920499       -2.1109615676
 H         -1.7799951323        2.8676830454       -3.1374718261
 H          5.2090326685        3.1866338497       -0.9039412319
  72
  -125.09291100000000        1.6561707465190571E-004 !
 C          3.1610753020        1.9791620476        1.2503900251
 H          3.8766760220        2.5980165374        1.8160354941
 O          2.8221634881        2.5870844215        0.0445408865
 H          3.5668714199        2.3634575485       -0.5889746022
 C          0.9920490500        1.1491992751        1.5042684726
 H          0.7563746098        1.5650566550        0.5174369371
 O          2.0422978554        1.9001328880        2.0869860033
 C          3.7514767449        0.5740950840        1.0186107465
 H          4.0274613232        0.1464765551        1.9896896036
 N          4.9509439593        0.5822751936        0.1918774128
 H          5.0653052107       -0.3552228563       -0.1895684576
 C          5.1439129188        1.5553985900       -0.8020550062
 O          5.3070111304        0.9947761976       -2.0634883926
 C          6.0222106244        2.7299613436       -0.4714485443
 H          5.8557488595        3.5467768287       -1.1733259211
 H          7.0824569756        2.4529928407       -0.5114684116
 H          5.8084747687        3.0821073929        0.5324931901
 C          2.6656991999       -0.3297184466        0.3969075761
 H          2.3735302409        0.0833165909       -0.5832658814
 O          3.2342142192       -1.6053162039        0.2375614275
 H          2.5862619300       -2.1907043767       -0.1828012940
 C          1.4323524444       -0.3113952976        1.3199954013
 H          1.7070063121       -0.7473803383        2.2916377915
 O          0.3142346991       -1.0017130652        0.7928816113
 C         -0.2514500739        1.2812039868        2.3912885399
 H         -0.2891744015        2.3134991149        2.7609867040
 H         -0.1906253900        0.5936521730        3.2369094820
 O         -1.4542622366        0.9477012861        1.7276109402
 C          0.3432328830       -2.4016152024        0.8052301110
 H          1.0607580144       -2.7695100476        1.5505895928
 C         -0.1385467563       -2.9297083625       -1.5015817874
 H          0.4421515983       -3.3767965598       -2.3154502435
 O          0.8017190455       -2.9037677217       -0.4310956564
 C         -1.0457112692       -2.9408547072        1.1760073938
 H         -1.8036944128       -2.1693879004        0.9680732165
 O         -1.0495151232       -3.2450309882        2.5448145690
 H         -1.7703408889       -3.8752470406        2.6905172456
 C         -1.3324318699       -4.2005799102        0.3407429400
 H         -0.5490870253       -4.9379668242        0.5514582685
 O         -2.5578278849       -4.7611857978        0.7233224304
 H         -3.2266029498       -4.4168339343        0.1073361403
 C         -1.3452315941       -3.8477349729       -1.1644309930
 H         -1.2677682003       -4.7823724563       -1.7313398165
 O         -2.5982105646       -3.3185684462       -1.5080173967
 H         -2.6074326270       -2.3694861799       -1.2958342803
 C         -0.5578120810       -1.5253693934       -1.9918427199
 H         -1.0247496148       -1.6436964708       -2.9737741268
 H          0.3469277380       -0.9184794834       -2.1004578880
 O         -1.5057601746       -0.8649929578       -1.1832107174
 H         -1.0501017088       -0.4988611501       -0.4009593744
 C         -1.9352157124        1.8805176300        0.8144506733
 H         -1.8981856814        2.9037472349        1.2451466450
 C         -1.5928124348        2.8063099107       -1.3190833869
 H         -1.6342419671        3.7977535206       -0.8400642679
 O         -1.1645887255        1.8498043848       -0.3616037727
 C         -3.4054059649        1.5079225133        0.5324172291
 H         -3.4304347066        0.4527633554        0.2159474047
 O         -4.1698361741        1.6931864161        1.6910120172
 H         -3.7746066269        1.1642317395        2.3950818665
 C         -3.9836936422        2.3882057355       -0.5955063665
 H         -4.1495088582        3.3911979129       -0.1901387116
 O         -5.2253839499        1.9209335829       -1.0321108159
 H         -5.0512994329        1.2146176617       -1.6738425863
 C         -3.0039165574        2.4300403760       -1.7931396155
 H         -3.3684614601        3.1676230217       -2.5163472731
 O         -3.0231802394        1.1938783446       -2.4598832985
 H         -2.4633926592        0.5631826902       -1.9690426703
 C         -0.5750911584        2.8119170610       -2.4506921531
 H         -0.6158876154        1.8687572345       -2.9887132867
 H          0.4211842487        2.9476620171       -2.0384935535
 H         -0.7964215535        3.6219532631       -3.1387606692
 H          6.0018568307        1.4496127804       -2.5513340325
  72
  -125.09287902000000        1.6010618852909820E-004 !
 C          3.5239897475        1.5390564904       -0.7501787352
 H          4.2737343665        2.3426289739       -0.7838277615
 O          4.1044753100        0.4715784559       -1.4213010458
 H          3.4326584487       -0.2179842070       -1.5525086750
 C          1.1300302669        1.5158540149       -1.1360280115
 H          0.6543278874        1.3650951663       -2.1139827603
 O          2.4070405239        2.0745666343       -1.4116461338
 C          3.2096562944        1.1914380736        0.7169396188
 H          2.8890417633        2.1097964159        1.2286173462
 N          4.3888143460        0.6584333892        1.3601261229
 H          5.1853161601        0.5646204623        0.7473393405
 C          4.6889710549        1.0475857165        2.6746739127
 O          3.5593956139        1.0513226693        3.5026610145
 C          5.9565229452        0.5222876088        3.2626497322
 H          5.8940066257       -0.5473181826        3.5086950100
 H          6.1944751893        1.0657709715        4.1763684214
 H          6.7742881499        0.6573552846        2.5602818940
 C          2.0616114140        0.1579180254        0.8173258563
 H          2.5221901841       -0.8404473873        0.8937511556
 O          1.2558863095        0.4095081687        1.9425973879
 H          1.8607119768        0.6345033467        2.6718672478
 C          1.1680870055        0.1551769551       -0.4349049306
 H          0.1464553859       -0.0923820021       -0.1370362766
 O          1.6415387808       -0.8045538180       -1.3836604594
 C          0.3251160275        2.5522050911       -0.3207446873
 H          0.1781236407        3.4434023081       -0.9431327459
 H          0.8910833400        2.8310614454        0.5695002338
 O         -0.9025033543        2.0827986753        0.1842195435
 C          0.9409397430       -1.9937090193       -1.4856124933
 H          1.4846436153       -2.5631217500       -2.2605231704
 C         -1.0993647610       -2.8770353052       -2.2581134445
 H         -0.5665003432       -3.4240422688       -3.0552203391
 O         -0.3707789817       -1.7163215828       -1.9180797883
 C          0.8981783167       -2.8371321463       -0.2001525686
 H          0.3468069832       -2.2832326332        0.5761714136
 O          2.2087864268       -3.1053897859        0.2252818225
 H          2.1653809750       -3.8923688294        0.7870967501
 C          0.1496098568       -4.1495188547       -0.4938879737
 H          0.7268349022       -4.7324996161       -1.2212451333
 O          0.0713213918       -4.9297651172        0.6690727023
 H         -0.6639699762       -4.5788468159        1.1916641637
 C         -1.2434504686       -3.8254224142       -1.0525583346
 H         -1.7232951486       -4.7567894315       -1.3986697127
 O         -1.9848379681       -3.2722975161        0.0056930154
 H         -2.7242664943       -2.7753916562       -0.3950941720
 C         -2.4602125714       -2.4161311931       -2.8071853111
 H         -3.0133154864       -3.2891001837       -3.1641030495
 H         -2.2780112530       -1.7389983737       -3.6493777593
 O         -3.2675866585       -1.8020428530       -1.8378265788
 H         -2.8475768279       -0.9682591966       -1.5593558743
 C         -1.9352396912        1.8015489248       -0.7419085281
 H         -1.5521022147        1.7606168118       -1.7670924445
 C         -3.0737360287        0.3238630997        0.7887929538
 H         -3.8999030280       -0.3627879770        0.5651818983
 O         -2.4567249814        0.5360434017       -0.4957886506
 C         -3.0073939118        2.9133037696       -0.6843084651
 H         -2.5476759764        3.8033986748       -0.2220795483
 O         -3.3975759551        3.2065235452       -2.0012087173
 H         -4.1801427369        3.7707461014       -1.9601430235
 C         -4.2022097884        2.4746336406        0.1844839673
 H         -4.8898141446        1.8869631637       -0.4342514110
 O         -4.9182089358        3.5893293204        0.6489757081
 H         -4.4675361078        3.9047003936        1.4454210939
 C         -3.6871343536        1.6167758790        1.3548956074
 H         -4.5375685799        1.3518650125        1.9946128618
 O         -2.8330551856        2.3748143109        2.1721907614
 H         -1.9490196768        2.3799365666        1.7723540540
 C         -2.1125574231       -0.3459541457        1.7677381032
 H         -1.2005726055        0.2332619919        1.8873747758
 H         -1.8555139512       -1.3355126482        1.4005803299
 H         -2.5993308861       -0.4428335967        2.7342513326
 H          3.7207201933        0.4955214658        4.2751958313
  72
  -125.09271590000000        1.3472350012100408E-004 !
 C          2.2421561710        2.4489308979        0.0954939930
 H          1.5103177214        3.2416021489        0.3093878280
 O          3.4860185453        3.0339755934        0.1657489457
 H          4.1428130690        2.3361625730        0.0279717939
 C          0.7943475744        1.4122829540       -1.5032154790
 H          0.9540823832        0.9143078706       -2.4690899378
 O          2.0653489334        1.9535386024       -1.2220326641
 C          2.1013988615        1.2818115646        1.0899800576
 H          2.2447292103        1.6591760489        2.1058934197
 N          3.1639934158        0.3245310037        0.7833502521
 H          3.0526784509       -0.0255031186       -0.1637718537
 C          3.4701509358       -0.7106189856        1.6505155588
 O          3.2040688614       -1.9979963454        1.1429121328
 C          3.4327612445       -0.5196988103        3.1271399095
 H          3.8666386710        0.4449044328        3.3771491060
 H          4.0170890033       -1.2972355364        3.6203539488
 H          2.4161647987       -0.5568038693        3.5414177527
 C          0.6916000575        0.6658058154        0.9753822395
 H          0.6709491969       -0.2645017652        1.5530734181
 O         -0.2796976374        1.4925198620        1.5565610715
 H         -0.4256283893        2.2352826109        0.9433181669
 C          0.3673749411        0.3186510320       -0.4933321959
 H         -0.7119704331        0.1530891307       -0.5742616964
 O          1.0529115362       -0.8934272203       -0.8016531070
 C         -0.2618723769        2.5109989108       -1.7730124012
 H         -1.0241117788        2.1051770254       -2.4413505568
 H          0.2560739529        3.3374825129       -2.2714990725
 O         -0.8881737545        3.0511395013       -0.6126100372
 C          0.4461600760       -1.6907004999       -1.7819294577
 H          0.0203671336       -1.0726868303       -2.5851608334
 C         -0.4050209148       -3.4815507843       -0.3945772474
 H         -1.3217076178       -4.0781993700       -0.4593082879
 O         -0.6526549543       -2.4050177995       -1.2924153914
 C          1.5406696175       -2.5765131781       -2.4045834896
 H          2.4805107072       -2.3967948907       -1.8562617982
 O          1.7011074712       -2.2046812483       -3.7482219469
 H          2.1856451771       -2.9166349047       -4.1887027348
 C          1.1588043632       -4.0597600286       -2.2847223742
 H          0.3036726050       -4.2578039599       -2.9394689589
 O          2.2148114488       -4.8730779625       -2.7260267240
 H          2.8213544811       -4.9876057316       -1.9798497988
 C          0.7905354447       -4.3680513530       -0.8265996783
 H          0.5038880167       -5.4233417335       -0.7543260202
 O          1.9316472364       -4.2612497761       -0.0042803643
 H          2.1933427466       -3.3299769942        0.0973440961
 C         -0.2503495295       -3.0013946783        1.0632815312
 H         -1.1477849692       -2.4493568765        1.3489987748
 H          0.6139927454       -2.3309912300        1.1383005498
 O         -0.1342595806       -4.0759719443        1.9561447611
 H          0.6769746164       -4.5544345955        1.7346375658
 C         -2.2622092671        2.8284118300       -0.5011859979
 H         -2.7937367796        3.1858240690       -1.4039077598
 C         -3.7214836668        0.9918179284        0.0317561054
 H         -4.4670106692        1.3400381098       -0.7006827518
 O         -2.4347798883        1.4399750950       -0.3600885623
 C         -2.7521754712        3.6499797355        0.7024538969
 H         -1.9907194979        3.5861283052        1.4968029859
 O         -2.8869187069        4.9775583878        0.2701876548
 H         -3.3148406298        5.4711823914        0.9825875430
 C         -4.0875100305        3.1265696638        1.2706833989
 H         -4.8993426662        3.4294345127        0.5990969315
 O         -4.3389931998        3.7320822493        2.5120890889
 H         -3.8923112873        3.1932341741        3.1827708925
 C         -4.0489044608        1.5938699619        1.4049962132
 H         -5.0269008570        1.2403868378        1.7504290304
 O         -3.1256779057        1.2178343358        2.3914875538
 H         -2.2236339349        1.2173124506        2.0206472626
 C         -3.6775342272       -0.5297660751        0.0752334506
 H         -3.2221043673       -0.9182045725       -0.8313405964
 H         -4.6845006467       -0.9233666859        0.1734478995
 H         -3.0860896948       -0.8512983122        0.9283066294
 H          3.6143396296       -2.6393444680        1.7336555991
  72
  -125.09271463000000        1.3454256581260676E-004 !
 C          2.2411881007        2.4519248386        0.0826987228
 H          1.5099346386        3.2445266108        0.2987598156
 O          3.4850576553        3.0377353399        0.1458145607
 H          4.1415170318        2.3398168245        0.0068372511
 C          0.7851493012        1.4130598894       -1.5064723227
 H          0.9388080129        0.9134077937       -2.4724752096
 O          2.0580453229        1.9538679029       -1.2330069677
 C          2.1063315768        1.2863569693        1.0797967901
 H          2.2550176041        1.6651757166        2.0943828387
 N          3.1679056014        0.3294739792        0.7683007001
 H          3.0503372940       -0.0229671819       -0.1771596467
 C          3.4814439862       -0.7031676486        1.6359201006
 O          3.2112662999       -1.9916350223        1.1335443920
 C          3.4542864952       -0.5081885977        3.1122526596
 H          4.0417186122       -1.2845725155        3.6035637145
 H          2.4405020459       -0.5437225231        3.5335314810
 H          3.8902655553        0.4569409357        3.3565546010
 C          0.6965232378        0.6690197889        0.9735318003
 H          0.6797804622       -0.2608656051        1.5520082618
 O         -0.2728286581        1.4951455653        1.5591088386
 H         -0.4215623421        2.2380135653        0.9466570496
 C          0.3632929501        0.3208315478       -0.4928175843
 H         -0.7168158194        0.1569684003       -0.5663269552
 O          1.0444094917       -0.8923789814       -0.8064068418
 C         -0.2714286910        2.5127492560       -1.7711897946
 H         -1.0369572956        2.1080533972       -2.4363734066
 H          0.2451620500        3.3389849387       -2.2714768606
 O         -0.8922150804        3.0528221773       -0.6076986388
 C          0.4211310925       -1.6926882086       -1.7739639266
 H         -0.0246268735       -1.0760438914       -2.5673428093
 C         -0.3916641495       -3.4883565400       -0.3697690160
 H         -1.3067043865       -4.0893046257       -0.4153634881
 O         -0.6635581130       -2.4122367479       -1.2610830199
 C          1.5052147270       -2.5733013154       -2.4216163878
 H          2.4565976095       -2.3908709779       -1.8944916300
 O          1.6335701563       -2.1989608588       -3.7680137700
 H          2.1115628323       -2.9080018277       -4.2202239528
 C          1.1317278778       -4.0582466076       -2.2947968029
 H          0.2624758031       -4.2590487702       -2.9298257855
 O          2.1804004039       -4.8672050020       -2.7609116600
 H          2.8040694029       -4.9806465227       -2.0287320331
 C          0.7982425409       -4.3689218342       -0.8288260488
 H          0.5184112906       -5.4256692929       -0.7507563135
 O          1.9573165500       -4.2570988117       -0.0325805991
 H          2.2135202697       -3.3243839966        0.0689573819
 C         -0.2077177336       -3.0085871364        1.0848754854
 H         -1.1024960872       -2.4633864423        1.3915392065
 H          0.6532936304       -2.3321012223        1.1411024984
 O         -0.0636160660       -4.0832059622        1.9738165075
 H          0.7452273148       -4.5561734946        1.7326635622
 C         -2.2659050267        2.8304352140       -0.4908790997
 H         -2.8013131504        3.1924970294       -1.3894689978
 C         -3.7236706440        0.9919553677        0.0390314798
 H         -4.4723249891        1.3451821906       -0.6878343224
 O         -2.4383980914        1.4414703003       -0.3559315226
 C         -2.7502096152        3.6462795464        0.7189542068
 H         -1.9847897000        3.5794661677        1.5092328572
 O         -2.8877587193        4.9756965055        0.2931841204
 H         -3.3112988944        5.4662405182        1.0104249064
 C         -4.0825149215        3.1197993783        1.2918404673
 H         -4.8979588457        3.4267681104        0.6265292632
 O         -4.3267789078        3.7182034303        2.5381411970
 H         -3.8772078984        3.1747997652        3.2032042772
 C         -4.0440547668        1.5863190148        1.4173076569
 H         -5.0205887893        1.2315007323        1.7654788106
 O         -3.1165086176        1.2042048050        2.3973773680
 H         -2.2157249621        1.2089994906        2.0235422541
 C         -3.6807250715       -0.5298623603        0.0727615978
 H         -3.2364130961       -0.9132920221       -0.8413530924
 H         -4.6868971141       -0.9230053693        0.1803866954
 H         -3.0793437671       -0.8575613897        0.9164476598
 H          3.6214666971       -2.6321963708        1.7250839739
  72
  -125.09271363000001        1.3440026886608886E-004 !
 C          2.2418541535        2.4504827939        0.0945878203
 H          1.5089498248        3.2421659928        0.3084327389
 O          3.4848619382        3.0373230451        0.1642692488
 H          4.1426609202        2.3406348364        0.0256398689
 C          0.7944701629        1.4119568134       -1.5032537361
 H          0.9543598780        0.9133032932       -2.4687376741
 O          2.0652183589        1.9542225093       -1.2226628412
 C          2.1029938640        1.2831225190        1.0890163174
 H          2.2473612797        1.6601355493        2.1048931197
 N          3.1656834384        0.3264803214        0.7805598308
 H          3.0532681275       -0.0229223603       -0.1666485252
 C          3.4738682157       -0.7089745051        1.6464809238
 O          3.2053882220       -1.9961644379        1.1395891905
 C          3.4415911188       -0.5185443067        3.1232176108
 H          2.4265972944       -0.5575899494        3.5413743070
 H          3.8746950695        0.4467416869        3.3719082991
 H          4.0292127020       -1.2951289338        3.6141461672
 C          0.6932282729        0.6668501498        0.9757630102
 H          0.6729477453       -0.2631435629        1.5539985027
 O         -0.2778107423        1.4940719319        1.5569146607
 H         -0.4249040183        2.2358425465        0.9427323919
 C          0.3678420063        0.3189404470       -0.4925185202
 H         -0.7116938010        0.1542368188       -0.5723329738
 O          1.0517268303       -0.8939795160       -0.8010168182
 C         -0.2623179146        2.5099482301       -1.7738438809
 H         -1.0241063628        2.1035405089       -2.4423377801
 H          0.2553324061        3.3365983377       -2.2723594285
 O         -0.8893710539        3.0501565966       -0.6138780629
 C          0.4430752788       -1.6904449043       -1.7808359855
 H          0.0159158302       -1.0717285804       -2.5827948422
 C         -0.4060723370       -3.4816503052       -0.3926643694
 H         -1.3221445170       -4.0792830271       -0.4572324624
 O         -0.6550485087       -2.4049394131       -1.2899471653
 C          1.5362938534       -2.5759715379       -2.4061028746
 H          2.4776614246       -2.3952696841       -1.8606717018
 O          1.6925599900       -2.2048102589       -3.7505041808
 H          2.1754307489       -2.9172401048       -4.1920506942
 C          1.1556059180       -4.0593239281       -2.2842783696
 H          0.2993738062       -4.2587454495       -2.9371809359
 O          2.2113553560       -4.8721438789       -2.7270510314
 H          2.8204691599       -4.9840215784       -1.9825785283
 C          0.7902678153       -4.3668173439       -0.8252270573
 H          0.5051430539       -5.4224276200       -0.7516202792
 O          1.9322194721       -4.2576463007       -0.0045256360
 H          2.1929517364       -3.3259382633        0.0958287811
 C         -0.2512606387       -3.0019821718        1.0653202339
 H         -1.1491635911       -2.4508729616        1.3513306996
 H          0.6124073520       -2.3306718733        1.1402012726
 O         -0.1338860100       -4.0765947221        1.9579970275
 H          0.6777779132       -4.5542214775        1.7363586528
 C         -2.2631824053        2.8256354033       -0.5021620968
 H         -2.7950338147        3.1803497047       -1.4057198365
 C         -3.7184965093        0.9870574913        0.0368165569
 H         -4.4660421722        1.3314629658       -0.6953800866
 O         -2.4334763590        1.4372853362       -0.3582547419
 C         -2.7543514261        3.6491437171        0.6996269675
 H         -1.9916582240        3.5898575799        1.4931919042
 O         -2.8932701037        4.9750303673        0.2634416005
 H         -3.3225125902        5.4694749197        0.9746114473
 C         -4.0876266526        3.1239308429        1.2711161768
 H         -4.9010661175        3.4230569251        0.5997897327
 O         -4.3390119820        3.7319185876        2.5113309827
 H         -3.8903325514        3.1957435820        3.1828021084
 C         -4.0453532354        1.5916671433        1.4091125259
 H         -5.0222296632        1.2370082379        1.7565801835
 O         -3.1202681026        1.2201623352        2.3955436350
 H         -2.2185192868        1.2203449065        2.0238779228
 C         -3.6704500265       -0.5343128868        0.0843368147
 H         -3.2150356224       -0.9240690869       -0.8216728355
 H         -4.6761857055       -0.9304203758        0.1848124378
 H         -3.0771220374       -0.8519977110        0.9375898237
 H          3.6145328813       -2.6379830979        1.7305791859
  72
  -125.09254561000000        1.1250802262325588E-004 !
 C          0.7858788618        0.8913101316       -1.8638395468
 H          1.2417736103        1.7136068325       -2.4295433427
 O          1.5007244347       -0.2511834965       -2.2310735568
 H          0.9984866681       -1.0402891238       -1.9471099042
 C         -1.4780893877        0.1242171886       -1.4951471696
 H         -1.9629864551       -0.6051350230       -2.1606365656
 O         -0.5459607540        0.8467941702       -2.2899032705
 C          0.8550339699        1.2142694629       -0.3523273582
 H          0.2430306909        2.1076472155       -0.2104874574
 N          2.2076167133        1.5323402295        0.0825993380
 H          2.2257928424        2.3257009631        0.7077706490
 C          3.0796616091        0.5113283813        0.5193176270
 O          3.5332881190       -0.3715257980       -0.4538968059
 C          4.1154808682        0.8892886906        1.5290627781
 H          4.7735832994        1.6871136832        1.1652143151
 H          4.7346595239        0.0219314177        1.7432836954
 H          3.6483738262        1.2314304728        2.4518833692
 C          0.2156726771        0.0648997801        0.4525866436
 H          1.0195798516       -0.6413132057        0.7098835414
 O         -0.4002731350        0.5303283725        1.6358661395
 H          0.2856722688        0.9028048267        2.2011936426
 C         -0.8464449529       -0.6956610801       -0.3587526799
 H         -1.6367212337       -0.9979400514        0.3419941951
 O         -0.3198352800       -1.8577764953       -0.9968242657
 C         -2.5768942817        1.0925574869       -1.0186576405
 H         -3.3071712568        0.5496871522       -0.4079861687
 H         -3.0815158221        1.4915810020       -1.9030985095
 O         -2.0257297759        2.1599367261       -0.2698189445
 C          0.0776340040       -2.9196194627       -0.1937421886
 H         -0.6103612586       -3.0410110714        0.6654848220
 C          1.9781518113       -3.7005545646        1.0031781160
 H          1.3586720234       -3.9357054621        1.8853136252
 O          1.3806522693       -2.6518547601        0.2680168551
 C          0.0348266236       -4.1856003856       -1.0586023194
 H          0.5996340946       -3.9778648682       -1.9810795601
 O         -1.3074108558       -4.4715459637       -1.3468556441
 H         -1.3325095205       -5.3736551009       -1.6956916222
 C          0.6938534584       -5.3727275164       -0.3317842907
 H          0.0688251680       -5.6589085902        0.5223236343
 O          0.7397497184       -6.4845772970       -1.1845360540
 H          1.5045696725       -6.3574433452       -1.7642867611
 C          2.0964251848       -4.9659390711        0.1408336948
 H          2.5213563532       -5.7757095053        0.7588731141
 O          2.8777340593       -4.7736226244       -1.0085614202
 H          3.6003440146       -4.1608934407       -0.7687750803
 C          3.3523304757       -3.1902067532        1.4774563607
 H          3.8251978017       -3.9768666604        2.0731138667
 H          3.1954403705       -2.3103452231        2.1116889709
 O          4.2186699506       -2.8990488728        0.4179077777
 H          3.9769187826       -2.0246853381        0.0406007446
 C         -2.4285347404        3.4554679718       -0.6370432304
 H         -2.4946996393        3.5268774574       -1.7338082967
 C         -3.8483414577        4.2086913543        1.1799665833
 H         -3.9604749229        5.3051098671        1.1652353006
 O         -3.7117042809        3.7679906448       -0.1802261935
 C         -1.4006180891        4.4680516843       -0.1167118544
 H         -0.4093609678        4.2305236586       -0.5146016247
 O         -1.7183899360        5.7474456905       -0.5969244104
 H         -2.6761737119        5.8642220642       -0.5781267920
 C         -1.3188112317        4.4244344971        1.4327159507
 H         -1.1396016276        5.4560123011        1.7633418517
 O         -0.2377589151        3.6385644148        1.8522663968
 H         -0.6304230231        2.8164413105        2.2040591749
 C         -2.6340546824        3.8872853982        2.0668239163
 H         -2.7922464109        4.3808324059        3.0324608256
 O         -2.5154033098        2.5272516154        2.3792858420
 H         -2.3755814240        2.0288842382        1.5522834710
 C         -5.1207630540        3.5825681807        1.7395405207
 H         -4.9728981320        2.5167431437        1.8908619401
 H         -5.9344406746        3.7325684608        1.0363575433
 H         -5.3723216021        4.0432589937        2.6901496540
 H          2.9269100558       -0.3305904203       -1.2220659633
  72
  -125.09254206000000        1.1208616878284692E-004 !
 C          0.7443095275        0.8687790640       -1.8763546766
 H          1.1882066785        1.6871244076       -2.4571555628
 O          1.4571098878       -0.2746678832       -2.2444229361
 H          0.9635526292       -1.0628334137       -1.9431312108
 C         -1.5112503769        0.0993395292       -1.4633423960
 H         -2.0057713264       -0.6373467022       -2.1134748178
 O         -0.5941534999        0.8157319138       -2.2807613401
 C          0.8359112007        1.2066005585       -0.3694969529
 H          0.2224585377        2.0986360211       -0.2268029680
 N          2.1930228903        1.5359053517        0.0421111644
 H          2.2140217272        2.3317273513        0.6642526995
 C          3.0779987586        0.5224375847        0.4701987099
 O          3.5243051295       -0.3603099818       -0.5065399731
 C          4.1243911916        0.9102736588        1.4651272368
 H          3.6670103152        1.2490268136        2.3941813625
 H          4.7701901069        1.7137432656        1.0917381123
 H          4.7542067701        0.0485969147        1.6712560821
 C          0.2141665422        0.0629285629        0.4570144147
 H          1.0248918125       -0.6380246326        0.7073673691
 O         -0.3839253691        0.5375692415        1.6458735568
 H          0.3107386737        0.9118414737        2.1994528041
 C         -0.8587199966       -0.7081366825       -0.3297653510
 H         -1.6366677696       -1.0063425325        0.3863753321
 O         -0.3389954722       -1.8745323573       -0.9655188513
 C         -2.6042803411        1.0702176480       -0.9778226733
 H         -3.3199737006        0.5324025627       -0.3458219852
 H         -3.1279587736        1.4559569721       -1.8570949388
 O         -2.0432797590        2.1489404421       -0.2531425893
 C          0.0793234337       -2.9258338962       -0.1588200173
 H         -0.5879871383       -3.0375373624        0.7177900784
 C          2.0116138320       -3.6890921134        0.9988682545
 H          1.4155354473       -3.9169075982        1.8988449773
 O          1.3923610237       -2.6496502221        0.2683610459
 C          0.0172494273       -4.2024034809       -1.0067722100
 H          0.5560729251       -4.0041878270       -1.9466791128
 O         -1.3316598241       -4.4949111034       -1.2549179840
 H         -1.3638190251       -5.4009384309       -1.5928154138
 C          0.6990259656       -5.3792650701       -0.2844704914
 H          0.0976133508       -5.6578678045        0.5888927821
 O          0.7263043694       -6.5004110056       -1.1257979497
 H          1.4751513708       -6.3773752924       -1.7268665932
 C          2.1119961619       -4.9627776575        0.1467034432
 H          2.5560603332       -5.7646822677        0.7615359338
 O          2.8623196104       -4.7793219668       -1.0245699044
 H          3.5873886620       -4.1600358029       -0.8103456938
 C          3.3961571783       -3.1707075069        1.4327377464
 H          3.8868130655       -3.9514069885        2.0219018190
 H          3.2535443427       -2.2862743358        2.0638913742
 O          4.2331814831       -2.8856750959        0.3482688470
 H          3.9829588271       -2.0119696230       -0.0250985032
 C         -2.4467675137        3.4401353564       -0.6356131574
 H         -2.5385411778        3.4913258008       -1.7315825772
 C         -3.8166529470        4.2410975235        1.1991314238
 H         -3.9166858920        5.3382826670        1.1637288659
 O         -3.7166998368        3.7691207478       -0.1536746359
 C         -1.4004865738        4.4553389430       -0.1585354710
 H         -0.4209035477        4.2049263175       -0.5769545191
 O         -1.7220572082        5.7285562245       -0.6523938513
 H         -2.6784998845        5.8514379443       -0.6147853977
 C         -1.2804804810        4.4367489665        1.3889899485
 H         -1.0825080322        5.4716526464        1.6975620410
 O         -0.1975313529        3.6465252905        1.7952375336
 H         -0.5899646655        2.8333789279        2.1675235694
 C         -2.5854268132        3.9241190653        2.0637911443
 H         -2.7162584608        4.4365880043        3.0236263700
 O         -2.4725060928        2.5687193029        2.3979523185
 H         -2.3603307554        2.0541600032        1.5767076279
 C         -5.0827272527        3.6424037394        1.8013538763
 H         -5.9108586686        3.7869897567        1.1140702300
 H         -5.3066395536        4.1266462291        2.7471618556
 H         -4.9436640983        2.5784082356        1.9724624904
 H          2.9030589126       -0.3307775569       -1.2633489787
  72
  -125.09250384000001        1.0764338069456368E-004 !
 C          2.9285653012        2.1608383575       -0.3189938543
 H          2.8404976296        3.2362393610       -0.0870076389
 O          4.0731823804        1.9125861803       -1.0765109383
 H          4.0109883390        2.3954355734       -1.9093797972
 C          1.6069310803        0.5062604667       -1.4139580063
 H          2.4179553444        0.2370460190       -2.1054302240
 O          1.7503329149        1.8688395053       -1.0226633272
 C          3.0219036020        1.3617246946        0.9899243316
 H          2.1700061497        1.6406242374        1.6245048786
 N          4.2506391657        1.6270472470        1.6909804756
 H          4.9797250111        2.0244575265        1.1208901973
 C          4.1959864390        2.0744214293        3.0264404787
 O          3.4629795844        1.2558210714        3.8647232254
 C          5.4621639704        2.6314305394        3.5985441519
 H          5.7933889052        3.4932757480        3.0224010776
 H          6.2725584989        1.8918174623        3.6094707935
 H          5.2745824454        2.9382395016        4.6233868952
 C          2.8958361616       -0.1419743726        0.6864271787
 H          3.7991942909       -0.4801807627        0.1582979258
 O          2.7723792854       -0.8077822392        1.9199272069
 H          2.3779290750       -1.6828437820        1.7709052948
 C          1.6762222414       -0.4347186842       -0.2003078464
 H          0.7761323378       -0.2860431612        0.4012683025
 O          1.8386972747       -1.7926651230       -0.6132795572
 C          0.2650875919        0.3906362599       -2.1569907795
 H          0.2677573142       -0.5164024945       -2.7595256806
 H          0.1326218586        1.2726682985       -2.7904475293
 O         -0.8516801244        0.2444432417       -1.2940944236
 C          0.7841747881       -2.6869231968       -0.5784256376
 H          1.2740868598       -3.6765833302       -0.6455488045
 C         -1.0372154280       -3.4804983548       -1.8526459589
 H         -0.5825411045       -4.4875434583       -1.8386068212
 O         -0.0298576686       -2.5009446810       -1.7204081061
 C         -0.0424421792       -2.6643848478        0.7188638041
 H         -0.4571528244       -1.6615109460        0.8932331894
 O          0.8326799975       -3.0150622311        1.7683206115
 H          0.2928537282       -3.1646431175        2.5559324040
 C         -1.2357620835       -3.6333268087        0.6300709540
 H         -0.8751984776       -4.6676760656        0.6554627351
 O         -2.0639704402       -3.4665440740        1.7517345025
 H         -2.6403499299       -2.7115025241        1.5612128707
 C         -2.0098515415       -3.3551041575       -0.6732490826
 H         -2.8353580145       -4.0672974627       -0.7782398874
 O         -2.5832234063       -2.0744022524       -0.6204148562
 H         -1.9140527158       -1.4249923435       -0.9035027526
 C         -1.7381147773       -3.2544962227       -3.2007202267
 H         -0.9705013592       -3.0443460855       -3.9565295196
 H         -2.4026528243       -2.3918987104       -3.1230767328
 O         -2.5463112499       -4.3375540602       -3.5680050445
 H         -1.9956517608       -5.1168205318       -3.7065996654
 C         -1.2641199830        1.4069429144       -0.6543099138
 H         -0.4027802607        1.9781318201       -0.2659076422
 C         -2.4046071914        3.4309334512       -1.0454821581
 H         -1.5504064584        3.9428526130       -0.5741195427
 O         -1.9679726932        2.1969549486       -1.5893666675
 C         -2.1719729762        1.0147914617        0.5209302861
 H         -2.9656319333        0.3503340972        0.1424164926
 O         -1.4011220746        0.3313926287        1.4786959530
 H         -1.8738890996        0.3898761146        2.3210381911
 C         -2.8120888399        2.2719832314        1.1382711348
 H         -2.0351728977        2.8475449782        1.6551528744
 O         -3.7529993935        1.8991428143        2.1113291843
 H         -4.5885668510        1.7301256451        1.6513376046
 C         -3.4595673097        3.1240863657        0.0304827454
 H         -3.8605925386        4.0455153342        0.4645981047
 O         -4.5520525512        2.4278459917       -0.5174171981
 H         -4.2036619614        1.8422801369       -1.2056173469
 C         -2.9673602261        4.2782211233       -2.1775299431
 H         -3.2050214348        5.2713125604       -1.8083966066
 H         -3.8694795206        3.8209547854       -2.5743807313
 H         -2.2331835018        4.3541027981       -2.9736561218
 H          3.1974402458        0.4618006041        3.3712598363
  72
  -125.09243975000000        1.0058508893762517E-004 !
 C          2.8279920131        2.0591852986       -0.3738947167
 H          3.6309068301        2.7619990075       -0.6282568777
 O          2.6877280650        1.2291192681       -1.4878966939
 H          1.8487728435        0.7333416681       -1.4131644765
 C          0.5431436526        2.1764255382        0.3429450928
 H         -0.2089421242        2.2179664700       -0.4548928602
 O          1.7075970538        2.8533647213       -0.1244661264
 C          3.2029825140        1.3068369213        0.9241203405
 H          3.2461157937        2.0816315534        1.6970263114
 N          4.5411003575        0.7021519846        0.8366851772
 H          5.0964478479        0.8690808240        1.6620193825
 C          4.7956034170       -0.5731852080        0.3265700554
 O          4.1804211398       -0.9428768024       -0.8511165643
 C          5.1912282868       -1.6998451625        1.2282849852
 H          5.5483113610       -2.5292734415        0.6233175293
 H          4.3601961849       -2.0648721412        1.8508603953
 H          5.9922378827       -1.3854877893        1.8959663669
 C          2.0845006572        0.3141066627        1.2973039027
 H          2.3483153264       -0.6777553157        0.9043934459
 O          1.9053068637        0.2441191192        2.6974841992
 H          2.7351853085       -0.0276090181        3.1054526882
 C          0.7204149316        0.6905907690        0.6840942564
 H         -0.0441340994        0.4386304182        1.4308793910
 O          0.4504859493       -0.0240567131       -0.5211272906
 C         -0.0117702767        2.9230151868        1.5731106567
 H         -0.1530528325        3.9786724143        1.3164448767
 H          0.6933173592        2.8382037149        2.4029101641
 O         -1.2096015228        2.3442046384        2.0440478056
 C          0.1307338810       -1.3679106216       -0.4052864019
 H         -0.4345202276       -1.5586773727        0.5283720510
 C          1.2086222096       -3.4973593979       -0.4411224494
 H          0.6515537577       -3.8567698693        0.4406181147
 O          1.3384442313       -2.0918568503       -0.3894090328
 C         -0.7492482939       -1.7412577497       -1.6048545867
 H         -0.2469548781       -1.3817508941       -2.5160389003
 O         -1.9975112171       -1.1136949155       -1.4497295163
 H         -2.6287788575       -1.6036594288       -1.9976650190
 C         -0.9288979381       -3.2648287004       -1.7027499948
 H         -1.5205383056       -3.6121554007       -0.8471868059
 O         -1.6653588838       -3.5834693400       -2.8524242376
 H         -1.0463376141       -3.5594819771       -3.5960718776
 C          0.4520924199       -3.9333417046       -1.7045794070
 H          0.3251365479       -5.0295100124       -1.6780828317
 O          1.0973543389       -3.5512864744       -2.8909179993
 H          2.0592871447       -3.5683099078       -2.7220514895
 C          2.6399833838       -4.0646259943       -0.4086762097
 H          2.5913458255       -5.1526778511       -0.5075211971
 H          3.0939187296       -3.8181012833        0.5577063255
 O          3.4225783132       -3.5901811003       -1.4680258161
 H          3.6430319286       -2.6515954118       -1.3001047218
 C         -2.3752378666        2.6806691830        1.3743482075
 H         -2.5205215489        3.7811565979        1.3553993055
 C         -3.4796977938        2.4103761649       -0.7139254509
 H         -3.7712050661        3.4723068185       -0.6558404014
 O         -2.3071020992        2.1986319013        0.0512016319
 C         -3.5346158216        2.0334063867        2.1489839624
 H         -3.2471200394        0.9886506704        2.3500693393
 O         -3.7058848126        2.7355704573        3.3502752698
 H         -4.5220221450        2.4116522407        3.7553061155
 C         -4.8467440094        2.0448571536        1.3377152737
 H         -5.2444590612        3.0666417946        1.3351160234
 O         -5.8053095521        1.2401545423        1.9770006101
 H         -5.6579648230        0.3350070328        1.6646554707
 C         -4.6058719929        1.5651215821       -0.1062558121
 H         -5.5343345337        1.6858416430       -0.6787870266
 O         -4.2989793398        0.1923946882       -0.0975319469
 H         -3.3391191828        0.0864330183       -0.1879151892
 C         -3.1581198097        2.0237743660       -2.1510733573
 H         -2.3979617420        2.6904358867       -2.5472399381
 H         -4.0531024679        2.0920899589       -2.7622455083
 H         -2.7738552542        1.0077882881       -2.1746574215
 H          3.7653899807       -0.1520655902       -1.2527563286
  72
  -125.09243780000000        1.0037774762036594E-004 !
 C          2.8181241695        2.0576896229       -0.3638353216
 H          3.6161347030        2.7646913912       -0.6218942311
 O          2.6716210029        1.2317567758       -1.4799828915
 H          1.8377525631        0.7283166211       -1.3983141981
 C          0.5373531195        2.1602674453        0.3653254865
 H         -0.2159512598        2.1969732978       -0.4316012890
 O          1.6966803997        2.8460088285       -0.1020221089
 C          3.2059355464        1.3029174934        0.9289024785
 H          3.2498857428        2.0756715009        1.7038331732
 N          4.5472535213        0.7068868792        0.8313154181
 H          5.1024177131        0.8668034752        1.6582119413
 C          4.8080693126       -0.5615318788        0.3074007730
 O          4.1968549128       -0.9223620163       -0.8748013005
 C          5.2162052698       -1.6945344268        1.1951058483
 H          6.0156049508       -1.3802016452        1.8648681275
 H          5.5801615140       -2.5132335927        0.5796535925
 H          4.3899491724       -2.0750154714        1.8149243130
 C          2.0952567329        0.3030150852        1.3065069602
 H          2.3618316094       -0.6859315975        0.9074201080
 O          1.9267627395        0.2264815032        2.7077155062
 H          2.7610428857       -0.0422371319        3.1086504491
 C          0.7246110342        0.6750273532        0.7049088549
 H         -0.0334157740        0.4189933529        1.4569964204
 O          0.4488294109       -0.0394622748       -0.4991201426
 C         -0.0212200086        2.9039316714        1.5951438900
 H         -0.1514019147        3.9620167746        1.3421483952
 H          0.6763459838        2.8096293105        2.4302604352
 O         -1.2280264887        2.3339406490        2.0535060649
 C          0.1479151333       -1.3881730133       -0.3847232792
 H         -0.3904857179       -1.5924837768        0.5616454290
 C          1.2531921808       -3.5032182234       -0.4713945260
 H          0.7236355292       -3.8812966377        0.4194390987
 O          1.3650578307       -2.0966316075       -0.4055854608
 C         -0.7595377838       -1.7627180526       -1.5634401515
 H         -0.2883534280       -1.3854435107       -2.4840310298
 O         -2.0122349486       -1.1559871461       -1.3663675641
 H         -2.6513862912       -1.6490274581       -1.9022998163
 C         -0.9189878816       -3.2875381138       -1.6741912040
 H         -1.4817500842       -3.6537041968       -0.8071389128
 O         -1.6818159790       -3.6042610747       -2.8070557529
 H         -1.0840586360       -3.5618139361       -3.5670196855
 C          0.4712489475       -3.9344512640       -1.7207989507
 H          0.3617389353       -5.0326793428       -1.7061069433
 O          1.0803377459       -3.5271725007       -2.9177552437
 H          2.0463131823       -3.5309330309       -2.7730071302
 C          2.6920207855       -4.0524230259       -0.4830054840
 H          2.6536720054       -5.1393405269       -0.5978536554
 H          3.1671038210       -3.8153203195        0.4753639915
 O          3.4419805187       -3.5518755870       -1.5538749473
 H          3.6630707821       -2.6164016572       -1.3708268019
 C         -2.3830303074        2.6795971299        1.3701578118
 H         -2.5091524984        3.7819099288        1.3326807039
 C         -3.4743080346        2.3936457307       -0.7238643426
 H         -3.7493625386        3.4607917553       -0.6858514462
 O         -2.3121774639        2.1755049540        0.0551487855
 C         -3.5600840668        2.0655709628        2.1451273361
 H         -3.2914762232        1.0204511241        2.3686101063
 O         -3.7312996426        2.7930211953        3.3314709111
 H         -4.5570558978        2.4908894671        3.7336715241
 C         -4.8643016974        2.0830265731        1.3212248056
 H         -5.2462693190        3.1104893025        1.2974820248
 O         -5.8411851357        1.3042136692        1.9649657356
 H         -5.7052520354        0.3916740834        1.6692514334
 C         -4.6181576602        1.5753636203       -0.1122543376
 H         -5.5398656418        1.6984707403       -0.6947071455
 O         -4.3299678395        0.1991636197       -0.0788900880
 H         -3.3692829276        0.0811296058       -0.1427042190
 C         -3.1458730126        1.9777505290       -2.1512336417
 H         -2.3717642005        2.6255126367       -2.5518031966
 H         -4.0340109665        2.0490365587       -2.7718509445
 H         -2.7774194134        0.9557055743       -2.1532108312
 H          3.7681285247       -0.1324378116       -1.2638742888
  72
  -125.09233768999999        9.0288008905263178E-005 !
 C          3.3720214786        1.8777658731       -0.7454720067
 H          4.0673245581        2.6760951209       -1.0348628319
 O          3.3925818585        0.9694886580       -1.7943630238
 H          2.6912240825        0.3051657536       -1.6761770816
 C          1.0666472658        1.7377339868       -0.0828056447
 H          0.3523303564        1.6298975298       -0.9098730742
 O          2.1490126324        2.5308946886       -0.5569811722
 C          3.8386376937        1.2533892481        0.5829079363
 H          3.9170374751        2.0609088695        1.3226212988
 N          5.1468229167        0.6826485999        0.3826592466
 H          5.2261854636        0.2400348378       -0.5261597414
 C          5.7222469878       -0.0838610430        1.4173101904
 O          5.4234797615        0.3691281701        2.6957084364
 C          7.1090603269       -0.5851370183        1.1791080935
 H          7.1909207656       -0.9931292391        0.1758313719
 H          7.3455415172       -1.3695679959        1.8966902746
 H          7.8621360769        0.2084408361        1.2850066520
 C          2.7948737055        0.2373792008        1.1196535543
 H          3.1762516896       -0.7783409027        0.9224415432
 O          2.5856294372        0.4144377157        2.4971012919
 H          3.4566406790        0.3515944367        2.9218014664
 C          1.4300347930        0.3346762149        0.4226101274
 H          0.6768868498        0.0539462957        1.1665636986
 O          1.4096983548       -0.6358036271       -0.6295366185
 C          0.3729857185        2.5055811683        1.0572266542
 H          0.1854180765        3.5354034402        0.7334882016
 H          1.0210483122        2.5052517633        1.9366701931
 O         -0.8269063976        1.8804594306        1.4740869343
 C          0.1377580112       -1.0948990683       -0.9491380222
 H         -0.5441353203       -0.2651348137       -1.2006094826
 C         -1.7051510619       -2.2393729085       -0.0563361916
 H         -2.3251336077       -1.4105133711       -0.4251189568
 O         -0.3753274783       -1.7878949850        0.1671740046
 C          0.2553543967       -2.0232238803       -2.1642610417
 H          1.0496890720       -2.7604353272       -1.9575454072
 O          0.5987099000       -1.2417036124       -3.2756413099
 H          0.4893436309       -1.7922172926       -4.0624964579
 C         -1.0779639726       -2.7635550743       -2.4147206852
 H         -1.7941812167       -2.0503203620       -2.8372473286
 O         -0.8900700809       -3.7695859406       -3.3772386352
 H         -0.6061934745       -4.5659728466       -2.9043592289
 C         -1.6361975250       -3.3538925482       -1.1050087274
 H         -2.6216151423       -3.7911279848       -1.2902205819
 O         -0.8026359404       -4.4034734739       -0.6717094199
 H         -0.0730037101       -3.9994839192       -0.1790130233
 C         -2.2425971532       -2.7085446027        1.2995165789
 H         -1.6299496349       -3.5425082058        1.6677341492
 H         -3.2744202505       -3.0453433339        1.1867547939
 O         -2.2562387112       -1.6562848437        2.2251663225
 H         -1.3666895762       -1.2793824675        2.2473945609
 C         -1.9605827553        2.1360849378        0.7152400485
 H         -2.0980501274        3.2328880277        0.5823920083
 C         -3.0024147361        1.7872078751       -1.3669208109
 H         -3.1293119055        2.8802238915       -1.4583570428
 O         -1.8702364689        1.5343739636       -0.5531587655
 C         -3.1549523833        1.5590438006        1.4932336548
 H         -2.9903336752        0.4780276035        1.6160818384
 O         -3.3033582003        2.1840507550        2.7450110551
 H         -2.4615983983        2.1056348209        3.2091487765
 C         -4.4409666262        1.7910876430        0.6958034983
 H         -4.6310939163        2.8749057191        0.6445742807
 O         -5.5287439705        1.1339297843        1.2986830522
 H         -5.4833248306        1.3191400389        2.2448345140
 C         -4.2801551479        1.2234991733       -0.7220459322
 H         -5.1483461373        1.5331730709       -1.3258811353
 O         -4.2139714326       -0.1790139368       -0.6744546354
 H         -4.8560663175       -0.4530389392       -0.0032846116
 C         -2.7464812920        1.1716998648       -2.7352368561
 H         -2.7909765234        0.0900631778       -2.6562659101
 H         -1.7637861103        1.4641390261       -3.0932427799
 H         -3.5038957271        1.5091178160       -3.4359607833
 H          6.1868305749        0.8114045262        3.0944337884
  72
  -125.09233189000000        8.9735560603229603E-005 !
 C          2.4729424019        1.8879429314       -0.6856859291
 H          3.2202719420        2.6463205854       -0.9588605136
 O          2.5530359789        0.9115416236       -1.6865239402
 H          1.7164006832        0.4038898058       -1.6823795868
 C          0.1583570507        1.9542919858        0.0114290381
 H         -0.6962173622        2.0001649085       -0.6755565008
 O          1.2485111572        2.5561105570       -0.6860986876
 C          2.7763076966        1.3460930984        0.7348680279
 H          2.6479982786        2.2112500614        1.4008977719
 N          4.1232311698        0.8519498065        0.9750541964
 H          4.8061024084        1.5985313425        0.9068871850
 C          4.5982757478       -0.3908734260        0.5351972304
 O          4.0946099554       -0.9974654432       -0.5998550142
 C          5.1738809791       -1.3234929993        1.5478829109
 H          5.7338255710       -2.1058193949        1.0416483596
 H          4.4018169585       -1.8047444669        2.1637560031
 H          5.8369309486       -0.7780124521        2.2151824549
 C          1.7363520143        0.2843915321        1.1279929433
 H          2.1152565255       -0.7081015077        0.8561013185
 O          1.4745201927        0.3311288514        2.5150741157
 H          2.3133859750        0.2176476634        2.9774726491
 C          0.3931416850        0.4885969373        0.3957003517
 H         -0.3972878172        0.1729757581        1.0888966348
 O          0.2937205745       -0.2717065683       -0.8042464372
 C         -0.1803793770        2.7989617664        1.2599498361
 H          0.0329478058        3.8484329324        1.0243032537
 H          0.4169005507        2.4802842772        2.1171410242
 O         -1.5185188220        2.6567048525        1.6851215910
 C          0.0763095602       -1.6376578086       -0.6809669893
 H         -0.6640282482       -1.8443247877        0.1161365111
 C          1.2738203141       -3.6616099851       -0.3182909948
 H          0.5523739111       -3.9921886754        0.4476919346
 O          1.3054202983       -2.2496818327       -0.3655214996
 C         -0.4687251702       -2.1409827664       -2.0232833897
 H          0.2213543648       -1.8055982475       -2.8140359525
 O         -1.7461809077       -1.5980665439       -2.2117050370
 H         -2.1679472018       -2.1047399385       -2.9197450900
 C         -0.5321117330       -3.6791915451       -2.0415526693
 H         -1.2912968981       -4.0129768079       -1.3247515968
 O         -0.9511273568       -4.1221614862       -3.3040887601
 H         -0.1721415543       -4.1000424859       -3.8783322321
 C          0.8446741362       -4.2474353673       -1.6722959162
 H          0.7720283229       -5.3442655393       -1.5726417808
 O          1.7186167306       -3.9156857734       -2.7196351621
 H          2.6230549548       -3.8980115446       -2.3511714627
 C          2.6865536464       -4.1202584798        0.0873591793
 H          2.7000056256       -5.2124486662        0.1397773951
 H          2.9119129148       -3.7158096603        1.0812266232
 O          3.6646854828       -3.7447061302       -0.8410179083
 H          3.8003347732       -2.7765814521       -0.7817668800
 C         -2.4963060624        3.3660228355        0.9391578994
 H         -2.0908599561        4.3519453420        0.6640120119
 C         -3.9531695293        1.8883340941       -0.2894844548
 H         -4.8301827247        2.5238811107       -0.4903829790
 O         -2.7977047888        2.7282413830       -0.2565386682
 C         -3.7011434485        3.5783231426        1.8708185238
 H         -3.3004814974        3.9082538915        2.8411485953
 O         -4.4855990453        4.5868570723        1.2825115724
 H         -5.2021089134        4.8142911389        1.8863872966
 C         -4.5135200650        2.2768977058        2.1193473599
 H         -5.5775901094        2.5386872890        2.0379331577
 O         -4.3020091627        1.7831468994        3.4105975851
 H         -3.6444675359        1.0712535974        3.3352069090
 C         -4.1803616763        1.1978131175        1.0618942352
 H         -5.0180298258        0.4984856329        0.9752621505
 O         -3.0897110373        0.4235784489        1.4864984544
 H         -2.3173014408        1.0177293151        1.5285798908
 C         -3.7560959192        0.8946178203       -1.4247455027
 H         -2.9578321666        0.1952412639       -1.1914171916
 H         -3.4917264572        1.4331643442       -2.3293751075
 H         -4.6755084150        0.3416950298       -1.5922325816
 H          3.6174208572       -0.3372111567       -1.1470089699
  72
  -125.09224808000000        8.2119854481341563E-005 !
 C          2.9171314916        2.0382813881       -0.4692403553
 H          2.8834647709        3.1316894778       -0.3401263277
 O          4.0708975528        1.6523156813       -1.1504562156
 H          4.0951359694        2.0959432970       -2.0066207688
 C          1.5616457102        0.3553091839       -1.4802601731
 H          2.3513149630        0.0147471238       -2.1645535568
 O          1.7503971407        1.7379897937       -1.1881242913
 C          2.9191020244        1.3643361211        0.9137619609
 H          2.0245111566        1.6887521026        1.4583640616
 N          4.0726908452        1.8213933538        1.6308842624
 H          4.9368829121        1.6039730290        1.1508331002
 C          4.1662017339        1.7167317532        3.0420780251
 O          3.0485213127        1.2897245889        3.7240605113
 C          4.9412607554        2.8036246430        3.7172652714
 H          5.1154643112        2.5258824313        4.7534079481
 H          4.4077320809        3.7616048756        3.7078967001
 H          5.8950834153        2.9423940743        3.2142389393
 C          2.8273539780       -0.1594684972        0.6888744487
 H          3.7444648122       -0.5061729917        0.1893933633
 O          2.6819522107       -0.8005691758        1.9346765034
 H          2.3122964882       -1.6879342700        1.7950462831
 C          1.6261485140       -0.5044972604       -0.2067224747
 H          0.7174288263       -0.3260407046        0.3735279688
 O          1.8009818639       -1.8871928595       -0.5243248420
 C          0.2028509775        0.2410347588       -2.1947820910
 H          0.1674723353       -0.6849696167       -2.7664036354
 H          0.0827683580        1.1030944325       -2.8572885306
 O         -0.9002564309        0.1615724560       -1.3024457981
 C          0.7342697415       -2.7660074837       -0.4731990425
 H          1.2096569153       -3.7636961496       -0.5275631533
 C         -1.1217595584       -3.5177536334       -1.7368901969
 H         -0.6973909298       -4.5382856973       -1.7441518948
 O         -0.0836599636       -2.5729023847       -1.6034553766
 C         -0.0825754606       -2.7103429065        0.8301909464
 H         -0.4763081698       -1.6972477057        0.9946910713
 O          0.7897066433       -3.0653810416        1.8799514107
 H          0.2506252915       -3.2060847024        2.6696658439
 C         -1.2916977766       -3.6584469552        0.7529547709
 H         -0.9477949939       -4.6985985406        0.7767111307
 O         -2.1094756828       -3.4797762196        1.8801938917
 H         -2.6633196852       -2.7048297518        1.7034431875
 C         -2.0771042217       -3.3754188547       -0.5443284266
 H         -2.9118821802       -4.0812761496       -0.6232874112
 O         -2.6382845613       -2.0900649185       -0.4931701948
 H         -1.9687912048       -1.4486042078       -0.7974533926
 C         -1.8349629095       -3.2360211775       -3.0667792785
 H         -2.2516003930       -2.2275357999       -3.0456258341
 H         -2.6550280285       -3.9614870075       -3.1762298481
 O         -0.9777019094       -3.2701778760       -4.1709161020
 H         -0.4738570532       -4.0919019690       -4.1612159993
 C         -1.2602320340        1.3587888209       -0.6974142239
 H         -0.3708530425        1.9339583277       -0.3863871099
 C         -2.3795526505        3.3869286031       -1.1238883946
 H         -1.4861678865        3.9006077473       -0.7340839703
 O         -2.0058613834        2.1161240933       -1.6276406094
 C         -2.1077200805        1.0443485355        0.5450636705
 H         -2.9402307445        0.3878735934        0.2435636546
 O         -1.3041260440        0.3805054252        1.4902540590
 H         -1.7101277695        0.5172918293        2.3581266910
 C         -2.6749273054        2.3476017909        1.1367551732
 H         -1.8518075845        2.9255042121        1.5732390570
 O         -3.5595073155        2.0495632628        2.1857614094
 H         -4.4277919148        1.8851861816        1.7892075057
 C         -3.3711376790        3.1616404600        0.0299418709
 H         -3.7226178608        4.1134094588        0.4409469796
 O         -4.5114059278        2.4667027324       -0.4132621048
 H         -4.2200732558        1.8469901830       -1.0981936976
 C         -2.9941702760        4.1894225159       -2.2615181877
 H         -2.3137262848        4.1973175933       -3.1074189865
 H         -3.1766341770        5.2082849938       -1.9335683865
 H         -3.9344568069        3.7415824976       -2.5713184917
 H          2.7330302373        0.4814113246        3.2865515844
  72
  -125.09213171000000        7.2605282901411092E-005 !
 C          2.8210225420        2.0585904565       -0.3570343930
 H          3.6214305458        2.7649788007       -0.6154839099
 O          2.6646777827        1.2396915060       -1.4805559395
 H          1.8135178961        0.7636215462       -1.4102323904
 C          0.5408373867        2.1687614776        0.3674281902
 H         -0.2079941590        2.2160531341       -0.4332700920
 O          1.7060858810        2.8530124893       -0.0901183476
 C          3.1961947716        1.2915729438        0.9379852638
 H          3.2157310731        2.0640672797        1.7199411388
 N          4.4961424983        0.6449161906        0.9709217435
 H          5.2498055875        1.3221018343        0.9940068789
 C          4.8233355248       -0.5344421614        0.2856974423
 O          4.1216722838       -0.9353364777       -0.8365880022
 C          5.4488844808       -1.6425380644        1.0662126946
 H          6.2545899160       -1.2499334337        1.6823621725
 H          5.8487264399       -2.3849652308        0.3803211106
 H          4.7339685389       -2.1428587045        1.7334383706
 C          2.0849171618        0.2921596858        1.2961317367
 H          2.3520102381       -0.6925766037        0.8893238162
 O          1.9238780384        0.1987393568        2.6944967802
 H          2.7852189603        0.0012724523        3.0807655773
 C          0.7180581990        0.6795805648        0.6971522782
 H         -0.0420883250        0.4236520725        1.4467573699
 O          0.4360184808       -0.0255546314       -0.5124144898
 C         -0.0200950916        2.9067303935        1.5995016613
 H         -0.1504181956        3.9661413431        1.3516557599
 H          0.6758460223        2.8077593954        2.4355036874
 O         -1.2273030697        2.3336076524        2.0520416130
 C          0.1289429168       -1.3731215143       -0.3993687947
 H         -0.4219126599       -1.5721974850        0.5409754858
 C          1.2199763906       -3.4933445565       -0.4354923966
 H          0.6748793255       -3.8449153151        0.4566376774
 O          1.3420990642       -2.0868250097       -0.4036914114
 C         -0.7615834653       -1.7547683488       -1.5885382825
 H         -0.2705284912       -1.3979784949       -2.5068888656
 O         -2.0120019298       -1.1337550242       -1.4252430701
 H         -2.6466178808       -1.6329639680       -1.9608387977
 C         -0.9326645711       -3.2804967122       -1.6750504309
 H         -1.5137579915       -3.6249611778       -0.8112127924
 O         -1.6793253104       -3.6106530661       -2.8149615484
 H         -1.0674808480       -3.5909178503       -3.5646057747
 C          0.4509094390       -3.9443140951       -1.6861301227
 H          0.3279430528       -5.0405117455       -1.6496334656
 O          1.0823454156       -3.5702300934       -2.8827308772
 H          2.0457053981       -3.5779431789       -2.7213380592
 C          2.6552917972       -4.0512641761       -0.4119970333
 H          2.6136832357       -5.1405281033       -0.4994662341
 H          3.1177760523       -3.7896582450        0.5463897721
 O          3.4232102709       -3.5804093083       -1.4840578486
 H          3.6400035626       -2.6409015734       -1.3176507797
 C         -2.3819763625        2.6804089075        1.3688411417
 H         -2.5133136877        3.7824999944        1.3410717497
 C         -3.4692953562        2.4072727287       -0.7287848775
 H         -3.7504877888        3.4725055127       -0.6810160330
 O         -2.3064348492        2.1888745749        0.0492048045
 C         -3.5569758774        2.0533769112        2.1364708132
 H         -3.2827991671        1.0078763736        2.3512129068
 O         -3.7330982314        2.7699544019        3.3285805299
 H         -4.5551828955        2.4569304925        3.7298058800
 C         -4.8604633205        2.0710332226        1.3114258609
 H         -5.2481559581        3.0965366703        1.2966293882
 O         -5.8336576394        1.2810890006        1.9469877454
 H         -5.6912623866        0.3718033377        1.6444390498
 C         -4.6098164918        1.5777144425       -0.1263273461
 H         -5.5311855011        1.7027440051       -0.7091810000
 O         -4.3162450676        0.2023957560       -0.1044065883
 H         -3.3559943916        0.0872171983       -0.1784823683
 C         -3.1378908272        2.0068048592       -2.1599390855
 H         -2.3667882991        2.6622551077       -2.5537301111
 H         -4.0260832735        2.0804047623       -2.7803139387
 H         -2.7647436114        0.9864483389       -2.1721911051
 H          3.6656684967       -0.1649515413       -1.2338582939
  72
  -125.09205126000001        6.6680056914193619E-005 !
 C          2.1476193901        1.2076694212       -1.9141330834
 H          2.8329976066        1.8052216572       -2.5316790417
 O          2.3400414749       -0.1162606068       -2.3243475973
 H          1.5614427521       -0.6389270047       -2.0415636673
 C         -0.1836636082        1.4052426847       -1.2941043848
 H         -1.0153780224        1.0418481911       -1.9105798797
 O          0.8705435059        1.6805165391       -2.2160543323
 C          2.4578720783        1.4444766651       -0.4121756383
 H          2.2471305086        2.5098977005       -0.2409767600
 N          3.8207878691        1.2125229856        0.0186116884
 H          4.4779636140        1.8728213143       -0.3918983916
 C          4.3179191132       -0.0674142371        0.2760079576
 O          4.1959774688       -1.0893652607       -0.6575463631
 C          5.5573757668       -0.1407713161        1.1035009992
 H          5.7992496581       -1.1824899697        1.2952564575
 H          5.4127939249        0.3796780643        2.0475587327
 H          6.4164893756        0.3152057741        0.5961323226
 C          1.4940989427        0.6214276906        0.4594556877
 H          1.9790793737       -0.3369028526        0.6918824713
 O          1.1994871466        1.3062579569        1.6590374573
 H          2.0349193479        1.4733829626        2.1114749645
 C          0.1618207987        0.3259979595       -0.2583658187
 H         -0.6204507872        0.3096465788        0.5117079565
 O          0.1697073690       -0.9164726471       -0.9543191620
 C         -0.6181534784        2.7095583620       -0.5939080038
 H         -0.2157357252        3.5551405148       -1.1561924323
 H         -0.2364487401        2.7231813908        0.4313032424
 O         -2.0193305165        2.9277817390       -0.5961431870
 C          0.1491528665       -2.0781984097       -0.1937763991
 H         -0.5146921900       -1.9579078579        0.6837997740
 C          1.6248242410       -3.5556547906        0.9388921079
 H          0.9814567169       -3.5492785325        1.8348666731
 O          1.4665643086       -2.3419389064        0.2320973091
 C         -0.3873854464       -3.2056019936       -1.0845808612
 H          0.2091497797       -3.2147220982       -2.0110849576
 O         -1.7349569426       -2.9408557850       -1.3590780665
 H         -2.1194923952       -3.7569563525       -1.7083575103
 C         -0.2343932584       -4.5695570377       -0.3854361073
 H         -0.9085975863       -4.6042253397        0.4782173263
 O         -0.6387710273       -5.5961859519       -1.2500212163
 H          0.1028354415       -5.7625656640       -1.8495224109
 C          1.2228729914       -4.7515591322        0.0619484338
 H          1.3069413558       -5.6730492719        0.6635660994
 O          1.9981184843       -4.8632074137       -1.1028859949
 H          2.9094502902       -4.5985998194       -0.8715086321
 C          3.0981254114       -3.6280285362        1.3818786832
 H          3.2428785130       -4.5461014645        1.9585723928
 H          3.3095851441       -2.7664864750        2.0259934348
 O          3.9894966271       -3.6787436384        0.3034446704
 H          4.0533013872       -2.7844045796       -0.0944675454
 C         -2.8193319499        1.9632059055        0.0683589954
 H         -2.7102098762        0.9758676726       -0.4006541616
 C         -2.6843152052        2.8076580649        2.3443142843
 H         -3.1096976490        2.2802474083        3.2080465473
 O         -2.4460257721        1.7624072059        1.3896004212
 C         -4.2819896237        2.4077070772       -0.1340823995
 H         -4.2849396012        3.1461561719       -0.9529996651
 O         -5.0289433382        1.2791068898       -0.5040618918
 H         -5.9603921469        1.5328630351       -0.5247760204
 C         -4.8524097678        3.0747584203        1.1344846365
 H         -5.2597959959        2.2951118275        1.7876257584
 O         -5.9162000327        3.9334202840        0.8128534287
 H         -5.5305558753        4.7772607570        0.5374838193
 C         -3.7266601517        3.8292414272        1.8594015609
 H         -4.1424943007        4.3465907093        2.7315166767
 O         -3.2149248468        4.8484282167        1.0381875319
 H         -2.7049884233        4.4343035207        0.3196019950
 C         -1.3781773459        3.4776355742        2.7694563733
 H         -1.0700404938        4.2245055595        2.0419827593
 H         -0.6028711072        2.7219467694        2.8632887343
 H         -1.5206480519        3.9706020374        3.7269789400
 H          3.5651491919       -0.8271772207       -1.3633266619
  72
  -125.09193431999999        5.8918822498740083E-005 !
 C          2.1399149298        1.2047385905       -1.9092903780
 H          2.8240344424        1.8041799548       -2.5239160809
 O          2.3377841445       -0.1146738033       -2.3183622750
 H          1.5812317599       -0.6513908934       -2.0055533786
 C         -0.1915526375        1.3993974044       -1.2834017150
 H         -1.0240263520        1.0291739822       -1.8948504663
 O          0.8596298385        1.6741014028       -2.2073914046
 C          2.4617482476        1.4457607697       -0.4134062936
 H          2.2720819494        2.5111672054       -0.2433594575
 N          3.8650361069        1.1861146705       -0.1145150398
 H          4.2753152542        1.8937990549        0.4766963568
 C          4.2882534112       -0.1063232503        0.2720620031
 O          4.2678360961       -1.0822188899       -0.7118338616
 C          5.4639878741       -0.1886177586        1.1920429294
 H          5.7068368591       -1.2343528253        1.3608862692
 H          5.2428338025        0.2838182104        2.1490169161
 H          6.3528160336        0.2959284131        0.7704968996
 C          1.4925245613        0.6309613935        0.4709866941
 H          1.9831441834       -0.3257750789        0.7053058525
 O          1.1905852748        1.3249106418        1.6671944694
 H          1.9891347691        1.3735475143        2.2044590166
 C          0.1601167485        0.3269319499       -0.2426895846
 H         -0.6206610674        0.3122008157        0.5293715625
 O          0.1704644512       -0.9178915124       -0.9319661699
 C         -0.6286731503        2.7066845896       -0.5899422908
 H         -0.2287317515        3.5493310240       -1.1583003368
 H         -0.2458795065        2.7279091000        0.4346757951
 O         -2.0303750017        2.9211515279       -0.5911793461
 C          0.1648758143       -2.0780860852       -0.1689109069
 H         -0.4810386337       -1.9572565132        0.7220614570
 C          1.6747520523       -3.5616187389        0.9151705786
 H          1.0565268930       -3.5702835644        1.8289538307
 O          1.4916020720       -2.3390513044        0.2299939881
 C         -0.3937976995       -3.2031951419       -1.0487793207
 H          0.1735454544       -3.2033382328       -1.9933013242
 O         -1.7501334646       -2.9392461942       -1.2783668473
 H         -2.1422051822       -3.7507536431       -1.6297931355
 C         -0.2160227736       -4.5718280257       -0.3655222895
 H         -0.8643498971       -4.6166424409        0.5173015198
 O         -0.6413296002       -5.5932631096       -1.2260810540
 H          0.0818675542       -5.7495395218       -1.8502980593
 C          1.2546788977       -4.7497287517        0.0363336866
 H          1.3620829343       -5.6769351369        0.6254780408
 O          1.9952861725       -4.8437988284       -1.1519169297
 H          2.9122533848       -4.5785310179       -0.9446051544
 C          3.1602012706       -3.6334126169        1.3163513612
 H          3.3208301470       -4.5546923613        1.8840240521
 H          3.3872966558       -2.7757131586        1.9604000487
 O          4.0220748750       -3.6769808925        0.2147654772
 H          4.0887799946       -2.7778378198       -0.1740560249
 C         -2.8250126601        1.9613217876        0.0856286291
 H         -2.7090702210        0.9678795670       -0.3684688970
 C         -2.6963067527        2.8423890621        2.3474706104
 H         -3.1161997677        2.3269046782        3.2210215503
 O         -2.4518330442        1.7830526219        1.4106254241
 C         -4.2905532762        2.3927741197       -0.1244111159
 H         -4.2983108638        3.1193780466       -0.9538157551
 O         -5.0293248343        1.2537973633       -0.4782877568
 H         -5.9623777478        1.5010599519       -0.5050423393
 C         -4.8662851340        3.0736223538        1.1343229530
 H         -5.2668021534        2.3003453533        1.7991543333
 O         -5.9375642684        3.9181939966        0.8008054768
 H         -5.5595620201        4.7606672721        0.5112996275
 C         -3.7468485487        3.8483441349        1.8474458817
 H         -4.1664983178        4.3754782925        2.7118533240
 O         -3.2430194022        4.8589179961        1.0111724855
 H         -2.7303737589        4.4383596316        0.2982271041
 C         -1.3946839863        3.5300001453        2.7583699836
 H         -1.0924662652        4.2643921295        2.0157576028
 H         -0.6141664870        2.7815358747        2.8661710470
 H         -1.5402925585        4.0403967151        3.7063119032
 H          3.6632472688       -0.7939873364       -1.4285754418
  72
  -125.09187315000000        5.5225832738186771E-005 !
 C          2.8329540268        1.9344090591        0.3416271648
 H          3.6412833538        2.6668098679        0.2538407162
 O          2.2986325972        1.7870171210       -0.9177880289
 H          1.7344619978        0.9962126013       -0.9371545679
 C          0.6723528816        1.8708784423        1.2609308293
 H          0.1708522866        2.0597960032        0.3018368667
 O          1.9226519549        2.5286642739        1.2756575827
 C          3.3546717020        0.5904780045        0.9550228466
 H          4.2152502101        0.8291701821        1.5916663692
 N          3.7810379833       -0.3899885035       -0.0021198454
 H          3.0170944297       -0.8514502831       -0.4844808404
 C          4.8581728823       -0.0823890479       -0.8742051963
 O          5.1513803141       -1.0645869424       -1.8012233917
 C          6.0792410219        0.5541476278       -0.2827287465
 H          6.8669644312        0.5105653956       -1.0287868099
 H          6.4276645870        0.0333437129        0.6173335681
 H          5.8961614123        1.5968709109       -0.0264703612
 C          2.2658726588        0.0044015816        1.8804789083
 H          2.3897231862       -1.0829096252        1.9212437023
 O          2.4165103724        0.4646968587        3.2003867844
 H          2.4763153115        1.4292009372        3.1646078590
 C          0.8384776672        0.3435575312        1.3962128427
 H          0.1252877098       -0.0349404425        2.1414079270
 O          0.5127466160       -0.1948158510        0.1238089521
 C         -0.2108430754        2.4348279406        2.3768213564
 H         -0.2685672125        3.5256506090        2.2730733515
 H          0.2040128567        2.1842454708        3.3556774436
 O         -1.5059977821        1.8612342891        2.3651157730
 C          0.2596511505       -1.5581886981        0.0504279442
 H          0.0196842017       -1.9766768103        1.0470688574
 C          1.3214744165       -3.5322629783       -0.7683997092
 H          1.1414939840       -4.1069319485        0.1556559541
 O          1.4178843797       -2.1582621821       -0.4661161801
 C         -0.9525753278       -1.7546280033       -0.8732197488
 H         -0.7428653462       -1.2262203786       -1.8157516471
 O         -2.1278047878       -1.2910490716       -0.2710874389
 H         -2.0740355925       -0.3290044592       -0.1376887542
 C         -1.1410153003       -3.2469582775       -1.1615168267
 H         -1.3970672643       -3.7554774234       -0.2191810625
 O         -2.1565026699       -3.4399153214       -2.1147378874
 H         -2.9100329884       -2.9046323362       -1.8327926560
 C          0.1582684253       -3.8322989324       -1.7301783284
 H          0.0462655327       -4.9254967458       -1.8114949885
 O          0.4144132718       -3.2882232501       -3.0018118405
 H         -0.4305089574       -3.2863954148       -3.4738424151
 C          2.6868922360       -3.9216687307       -1.3612787188
 H          2.6266646037       -4.9565295420       -1.7271930715
 H          3.4487764100       -3.8602341684       -0.5808532692
 O          3.0911371275       -3.0475202227       -2.3726600715
 H          2.3446984580       -2.9356113455       -2.9805784876
 C         -2.3591186118        2.2883490594        1.3571671208
 H         -2.2926093576        3.3923265783        1.2427523493
 C         -2.8533084670        2.1828148899       -0.9376307314
 H         -2.7255078476        3.2777894513       -0.9795336095
 O         -2.0502872975        1.6823807727        0.1236161844
 C         -3.7892559338        1.9020333609        1.7650564710
 H         -3.8396407283        0.8028138313        1.8019096028
 O         -4.1505840902        2.4639378132        3.0003498918
 H         -3.4480736380        2.2620031103        3.6303642031
 C         -4.7592859445        2.4214185689        0.6986638285
 H         -4.7217666804        3.5223074154        0.7040091006
 O         -6.0691428990        1.9773836705        0.9492439509
 H         -6.2627548903        2.1622242714        1.8763801810
 C         -4.3436415191        1.8921350592       -0.6842206531
 H         -4.9388125986        2.4174789065       -1.4493519358
 O         -4.5714727673        0.5122214876       -0.7650553606
 H         -5.4259153380        0.3473947705       -0.3431638993
 C         -2.3721643208        1.5454091533       -2.2327690685
 H         -2.6656114701        0.5006729635       -2.2474870108
 H         -1.2909548535        1.6265941080       -2.2988183157
 H         -2.8248389162        2.0526938840       -3.0792165687
 H          4.3943498465       -1.6544401343       -1.9403195498
  72
  -125.09186844000000        5.4951266592759495E-005 !
 C          2.8316312913        1.9283923464        0.3156839435
 H          3.6415699290        2.6580982445        0.2203714004
 O          2.3011742829        1.7654896907       -0.9435043082
 H          1.7297477736        0.9795878999       -0.9525519541
 C          0.6679617080        1.8810801690        1.2327699867
 H          0.1631204031        2.0648436620        0.2742566736
 O          1.9199456834        2.5358929118        1.2396983466
 C          3.3498769886        0.5926681418        0.9487704274
 H          4.2031103834        0.8407322997        1.5914956376
 N          3.7894292416       -0.3966993105        0.0073213932
 H          3.0326713559       -0.8541509593       -0.4899063831
 C          4.8889848643       -0.1033123499       -0.8412320642
 O          5.1965099241       -1.0950960170       -1.7534308831
 C          6.1006997518        0.5279671545       -0.2253695857
 H          6.4176819220        0.0168039741        0.6915038743
 H          5.9230642502        1.5766116139        0.0101777687
 H          6.9080984564        0.4640421432       -0.9484397297
 C          2.2536695227        0.0136268668        1.8701646240
 H          2.3743718701       -1.0737932801        1.9164491717
 O          2.3988343919        0.4794227792        3.1889646027
 H          2.4653310111        1.4432259027        3.1491320749
 C          0.8293058549        0.3542500717        1.3782589786
 H          0.1123817671       -0.0174070259        2.1233677879
 O          0.5053487541       -0.1904845997        0.1080105443
 C         -0.2080754295        2.4550353368        2.3494478294
 H         -0.2680270335        3.5446335371        2.2350313874
 H          0.2148672611        2.2150516352        3.3275094501
 O         -1.5022733771        1.8797815570        2.3542484983
 C          0.2575034942       -1.5550904622        0.0389860764
 H          0.0127093052       -1.9702790911        1.0358356118
 C          1.3301683028       -3.5279553027       -0.7682751586
 H          1.1423729467       -4.1012901575        0.1549592679
 O          1.4209206466       -2.1532217491       -0.4678786387
 C         -0.9488856523       -1.7573776021       -0.8910565864
 H         -0.7369867404       -1.2269862095       -1.8320590048
 O         -2.1294535736       -1.2998979557       -0.2945594080
 H         -2.0784618857       -0.3390643035       -0.1522933356
 C         -1.1292971940       -3.2502353964       -1.1819534927
 H         -1.3915954896       -3.7603509490       -0.2422756141
 O         -2.1359085356       -3.4462241896       -2.1440262802
 H         -2.8954086598       -2.9177219056       -1.8657518480
 C          0.1764157471       -3.8311495906       -1.7402634420
 H          0.0683649784       -4.9245933871       -1.8235593725
 O          0.4422592638       -3.2850762751       -3.0090205061
 H         -0.3981874755       -3.2854827066       -3.4888651473
 C          2.7015232920       -3.9164988000       -1.3478507758
 H          2.6460625945       -4.9520271656       -1.7126633128
 H          3.4559340766       -3.8528434695       -0.5603923823
 O          3.1140697468       -3.0434163527       -2.3569690413
 H          2.3725034194       -2.9317709995       -2.9708336872
 C         -2.3661930768        2.2980463227        1.3518384209
 H         -2.3011756717        3.4010779585        1.2273264268
 C         -2.8877904616        2.1726561644       -0.9351662950
 H         -2.7614199321        3.2673923303       -0.9875755906
 O         -2.0710895046        1.6816701997        0.1201289130
 C         -3.7914514368        1.9157394323        1.7801569509
 H         -3.8415630187        0.8169041742        1.8271030861
 O         -4.1373813690        2.4883724367        3.0149027434
 H         -3.4267771755        2.2923756563        3.6377000464
 C         -4.7744051589        2.4259196605        0.7214406256
 H         -4.7365152849        3.5267881107        0.7162415748
 O         -6.0813124975        1.9847304146        0.9919357533
 H         -6.2630360400        2.1772904302        1.9199178233
 C         -4.3748301773        1.8836441718       -0.6610529348
 H         -4.9793514561        2.4012651470       -1.4241094277
 O         -4.6027397024        0.5029159651       -0.7257042822
 H         -5.4526378208        0.3420052243       -0.2932372215
 C         -2.4229753907        1.5253604815       -2.2313885745
 H         -2.7180377187        0.4809593302       -2.2351667569
 H         -1.3425315760        1.6046122070       -2.3110622245
 H         -2.8851539246        2.0273983881       -3.0758591740
 H          4.4345628446       -1.6730381314       -1.9132871773
  72
  -125.09182934000000        5.2724029122145591E-005 !
 C          2.9990131219        2.6004270078        0.2321266480
 H          3.7096553153        3.1877016215        0.8306102068
 O          3.1455488321        2.9562775182       -1.0943901334
 H          3.2332752527        2.1392201001       -1.6179891118
 C          0.6413953754        2.2716876956        0.2591947195
 H          0.6478274279        2.2921413255       -0.8402979109
 O          1.7491557162        3.0046837370        0.7565305435
 C          3.2267499020        1.0680546767        0.4610192699
 H          4.1954059233        0.9507076923        0.9610549994
 N          3.2645516301        0.3774622494       -0.8079981978
 H          2.3231466671        0.2424165398       -1.1831969153
 C          4.0956778657       -0.7342741123       -0.9903697452
 O          4.4039570621       -1.5656791167        0.0938032560
 C          3.9159334843       -1.4815045923       -2.2679270147
 H          3.9788730104       -0.7962392352       -3.1091135957
 H          2.9466358931       -1.9939130975       -2.3107029142
 H          4.6973791727       -2.2308559597       -2.3584595456
 C          2.1028506900        0.5349110151        1.3820326512
 H          2.2157147253       -0.5465788831        1.5105393653
 O          2.1683552298        1.0836867019        2.6685522419
 H          1.9952033559        2.0337815366        2.5955449489
 C          0.7279936306        0.7968784686        0.7231301960
 H         -0.0484727287        0.5837423093        1.4684395753
 O          0.5139886016       -0.0217623836       -0.4272421027
 C         -0.6112810177        3.0100302751        0.7596464381
 H         -0.4086013138        4.0818869693        0.7117124424
 H         -0.8247884530        2.7300585403        1.7973336009
 O         -1.7551051748        2.8172723673       -0.0412157677
 C          0.0868891849       -1.3204207692       -0.2023331379
 H         -0.7078769275       -1.3445034615        0.5685375087
 C          0.9279206018       -3.4483434005        0.4393200729
 H          0.1236190835       -3.5563485421        1.1860107156
 O          1.1972783865       -2.0765124866        0.2311276582
 C         -0.4590580759       -1.8809241647       -1.5231002193
 H          0.3205564404       -1.7482993157       -2.2893550619
 O         -1.6303028105       -1.1977623714       -1.9018581554
 H         -2.0470716177       -1.7507217743       -2.5821318908
 C         -0.7731730911       -3.3809897868       -1.3830019289
 H         -1.6098177219       -3.5028780725       -0.6852452913
 O         -1.2033565985       -3.8841081580       -2.6190765729
 H         -0.4081028984       -4.0850348404       -3.1333084442
 C          0.4680461438       -4.1164479845       -0.8672507284
 H          0.2106287115       -5.1676174828       -0.6547540538
 O          1.4322524154       -4.0498893467       -1.8861178861
 H          2.2982407230       -4.2344164472       -1.4704439147
 C          2.2099947984       -4.0950803028        0.9966589512
 H          1.9901056728       -5.1384254534        1.2394693438
 H          2.4930527363       -3.5708392588        1.9164052344
 O          3.2661299372       -4.1104526961        0.0765754266
 H          3.6472242795       -3.2110534794        0.0064013523
 C         -2.2254660645        1.4810905414       -0.1184587059
 H         -1.5160235544        0.8846833066       -0.7100430439
 C         -3.5848619847        0.8733006240        1.7765750126
 H         -4.1793532872        0.0339621829        1.3866288183
 O         -2.3122380941        0.8582139134        1.1251997890
 C         -3.5731427037        1.5259408312       -0.8457145150
 H         -3.4193576043        2.0179492283       -1.8200643244
 O         -4.0858429122        0.2335329035       -1.0222267666
 H         -3.3555131612       -0.3389229970       -1.3044753368
 C         -4.5525175204        2.3870121202       -0.0320247994
 H         -5.5705578848        2.1164852364       -0.3259418439
 O         -4.3841817909        3.7451147321       -0.3438491847
 H         -3.4279057856        3.9132090879       -0.3478219136
 C         -4.3724019573        2.1585137481        1.5031063277
 H         -5.3698147275        2.0342808337        1.9575087944
 O         -3.7243621754        3.2457672821        2.1090454143
 H         -4.0244173216        4.0419434180        1.6441655158
 C         -3.3248709995        0.6876424348        3.2657982715
 H         -2.6857732981       -0.1771915764        3.4195349469
 H         -4.2656380779        0.5395385147        3.7872416097
 H         -2.8332028809        1.5723141800        3.6590495295
 H          4.3733031520       -1.0693331525        0.9177469482
  72
  -125.09173865000000        4.7899430836513380E-005 !
 C          2.7399282947        0.9706944498       -1.7315136801
 H          3.6219302596        1.4829309770       -2.1415190170
 O          2.9774016109       -0.3931718026       -1.9330365365
 H          2.1201706748       -0.8636430037       -1.8637118735
 C          0.3496077349        1.2474572700       -1.9510612083
 H         -0.2433474041        0.7872120967       -2.7512814080
 O          1.6606279042        1.4479943360       -2.4768929678
 C          2.5643943766        1.3574388815       -0.2383637036
 H          2.3918356443        2.4433128169       -0.2468314168
 N          3.6981055021        1.1261597238        0.6333439514
 H          4.4994421745        1.7060061280        0.3917140416
 C          3.9906603008       -0.1314452438        1.1655460423
 O          4.0919014353       -1.2529326269        0.3515774935
 C          4.8964844198       -0.1523375654        2.3514371631
 H          5.9017926677        0.2116633926        2.1055353206
 H          4.9911659857       -1.1727452387        2.7124462353
 H          4.4979785634        0.4787965393        3.1427329605
 C          1.3124045720        0.6772252931        0.3452334571
 H          1.6291858826       -0.2494441431        0.8438748307
 O          0.6808513609        1.5253452225        1.2837176682
 H          1.3242803071        1.7197063385        1.9756285033
 C          0.2837650824        0.3096945926       -0.7414273190
 H         -0.7196611876        0.3813611128       -0.3046541480
 O          0.4679346622       -1.0136191613       -1.2436646059
 C         -0.2853784197        2.6162061844       -1.6275864939
 H         -0.1534569731        3.2667971781       -2.4970915810
 H          0.1982747541        3.0749379311       -0.7623638218
 O         -1.6721646511        2.4571338682       -1.4001194509
 C          0.1006506919       -2.0629156225       -0.4133880901
 H         -0.8167649542       -1.8094279022        0.1503121317
 C          0.9974288690       -3.4070615293        1.3348417570
 H          0.0920690419       -3.2659368037        1.9492184044
 O          1.1691948922       -2.2972206336        0.4786183763
 C         -0.1637296222       -3.2914150684       -1.2931464891
 H          0.7193898904       -3.4418864667       -1.9349666960
 O         -1.3071123005       -3.0488805800       -2.0650518462
 H         -1.5938176120       -3.9029500573       -2.4182121704
 C         -0.3615546632       -4.5467462125       -0.4225709123
 H         -1.2922458424       -4.4413482980        0.1469583663
 O         -0.5192562594       -5.6741322572       -1.2418322125
 H          0.3693244457       -5.9422190468       -1.5169522343
 C          0.8348888756       -4.7035248727        0.5259243332
 H          0.6380297072       -5.5328338751        1.2273795780
 O          1.9519406346       -5.0020639362       -0.2702816434
 H          2.7453848300       -4.7177300172        0.2236072556
 C          2.2292405916       -3.4491927940        2.2583188301
 H          2.1169517359       -4.2858985179        2.9537206438
 H          2.2664945704       -2.5139845909        2.8295223112
 O          3.4250480142       -3.6575109690        1.5602464857
 H          3.6575678986       -2.8336234944        1.0806380509
 C         -2.1268502563        2.6981982397       -0.1142664006
 H         -1.3790189836        2.4250520945        0.6513754525
 C         -2.9574011218        4.4572913462        1.2346377063
 H         -2.3209882225        4.0686864557        2.0457948566
 O         -2.4086963111        4.0824205929       -0.0161339546
 C         -3.3796890843        1.8336038661        0.1024422654
 H         -4.0049540117        1.9182945050       -0.8001056887
 O         -2.9468014020        0.5058757255        0.2678751947
 H         -3.7269544710       -0.0251019438        0.4759660512
 C         -4.1910459182        2.2856172832        1.3342343719
 H         -3.6632950218        1.9585864347        2.2373991665
 O         -5.4441551069        1.6492759161        1.3459437798
 H         -6.0355861740        2.1805191140        0.7926223214
 C         -4.3501553959        3.8160394920        1.3355529681
 H         -4.8723919452        4.1316532304        2.2444651839
 O         -5.1538366854        4.2051756613        0.2484018569
 H         -4.5644254580        4.2918871483       -0.5165385780
 C         -3.0193109395        5.9772607162        1.2898548976
 H         -2.0416210351        6.3895831919        1.0601126454
 H         -3.3241138019        6.2966550405        2.2819434857
 H         -3.7355682316        6.3462000359        0.5608723167
 H          3.7503531296       -1.0481410728       -0.5462598833
  72
  -125.09173454000000        4.7691559913845622E-005 !
 C          2.7475816484        0.9742127050       -1.7232958812
 H          3.6305339228        1.4873297853       -2.1301986609
 O          2.9857016800       -0.3892736733       -1.9267586066
 H          2.1279836001       -0.8594035323       -1.8623805306
 C          0.3577536275        1.2516568460       -1.9478878913
 H         -0.2332078262        0.7924085529       -2.7500983024
 O          1.6701191124        1.4529561140       -2.4701503722
 C          2.5690096220        1.3573900463       -0.2295832176
 H          2.3980966872        2.4435503998       -0.2357346280
 N          3.7012137388        1.1222796363        0.6429987142
 H          4.5044395493        1.6998526184        0.4023692230
 C          3.9892185704       -0.1358276205        1.1763182466
 O          4.0839397284       -1.2587235986        0.3634145706
 C          4.8978851759       -0.1591771953        2.3600128038
 H          4.9794235116       -1.1775980609        2.7298381090
 H          4.5099773495        0.4842669210        3.1465911697
 H          5.9077928503        0.1882775780        2.1085038895
 C          1.3146478770        0.6782180634        0.3502352666
 H          1.6286190420       -0.2490165411        0.8494733008
 O          0.6807365166        1.5267121684        1.2868678087
 H          1.3206126700        1.7170502914        1.9831699803
 C          0.2891629779        0.3121551817       -0.7398006646
 H         -0.7152184069        0.3832069454       -0.3051854837
 O          0.4753235926       -1.0102353925       -1.2438741206
 C         -0.2783353858        2.6199006831       -1.6246910043
 H         -0.1435876210        3.2717266714       -2.4929115488
 H          0.2032756763        3.0768893756       -0.7574219087
 O         -1.6656667325        2.4604009780       -1.4009621355
 C          0.1025851440       -2.0615625344       -0.4189099103
 H         -0.8195317675       -1.8103127685        0.1380445432
 C          0.9848799754       -3.4082327438        1.3349108393
 H          0.0761344421       -3.2660918740        1.9440391511
 O          1.1639602095       -2.2975026231        0.4812805671
 C         -0.1525269449       -3.2889700459       -1.3028315815
 H          0.7386644797       -3.4405770471       -1.9331647897
 O         -1.2854263031       -3.0451830796       -2.0894486900
 H         -1.5695624264       -3.8993184606       -2.4445276836
 C         -0.3628466169       -4.5435752617       -0.4341587968
 H         -1.2985115737       -4.4350967392        0.1265957712
 O         -0.5163709409       -5.6705457141       -1.2546719185
 H          0.3739690333       -5.9420042807       -1.5206023634
 C          0.8245690413       -4.7044524227        0.5250356013
 H          0.6183277288       -5.5324646892        1.2254388245
 O          1.9473527883       -5.0082018099       -0.2611187100
 H          2.7377253710       -4.7248117120        0.2381616960
 C          2.2109430767       -3.4534552171        2.2659142738
 H          2.0939086667       -4.2912652661        2.9592320837
 H          2.2458462577       -2.5192541282        2.8389199905
 O          3.4106187232       -3.6616287470        1.5745504472
 H          3.6446352951       -2.8383375772        1.0947187042
 C         -2.1255983932        2.7060980975       -0.1180385414
 H         -1.3768529808        2.4450323294        0.6510275679
 C         -2.9721845132        4.4689375588        1.2175187937
 H         -2.3294492610        4.0963899552        2.0313316075
 O         -2.4212142778        4.0884639604       -0.0305207791
 C         -3.3720671811        1.8336630716        0.1034626792
 H         -4.0007891205        1.9129558738       -0.7972110817
 O         -2.9327406082        0.5083848157        0.2706447357
 H         -3.7089912396       -0.0230422068        0.4921326487
 C         -4.1807003396        2.2843568266        1.3372083702
 H         -3.6430911071        1.9701131104        2.2391240613
 O         -5.4258618510        1.6328092757        1.3617842519
 H         -6.0271782464        2.1519780277        0.8077887106
 C         -4.3573978853        3.8127452974        1.3284019967
 H         -4.8790836657        4.1286515973        2.2375960691
 O         -5.1708857147        4.1847024244        0.2424515233
 H         -4.5865594084        4.2731278699       -0.5260439425
 C         -3.0528445322        5.9885184072        1.2577317781
 H         -2.0803274702        6.4107006197        1.0244907535
 H         -3.3622028899        6.3140916240        2.2463763349
 H         -3.7729591641        6.3417787068        0.5248417823
 H          3.7480821677       -1.0512454693       -0.5358073277
  72
  -125.09169206000000        4.5595194370622184E-005 !
 C          0.1616307883       -0.2534775617       -1.6793835067
 H          0.3505615115        0.3305583951       -2.5907145538
 O          0.6951460418       -1.5146012708       -1.9319424811
 H          0.3558244290       -2.1285784982       -1.2534140903
 C         -1.8000654252       -0.5893382709       -0.2765445845
 H         -2.5138276865       -1.4023812080       -0.4746567226
 O         -1.2332698319       -0.2446793306       -1.5376235229
 C          0.8185232382        0.4470222513       -0.4804061567
 H          0.3775012365        1.4501433624       -0.4323752943
 N          2.2541378773        0.5486703147       -0.6244773771
 H          2.6199140619        0.1111927134       -1.4580890185
 C          2.8595541896        1.7874859593       -0.3286175775
 O          2.3278611951        2.4455203794        0.7729637043
 C          4.3410674779        1.8752941576       -0.5032007901
 H          4.6195179594        1.5722439191       -1.5094944827
 H          4.8836179620        1.2428854672        0.2109112754
 H          4.6522376855        2.9039518125       -0.3425300794
 C          0.4907340889       -0.2852133540        0.8444369410
 H          1.3351293599       -0.9371984983        1.0834523558
 O          0.4184254336        0.6248992570        1.9159556537
 H         -0.3765727626        1.1705228789        1.7854694912
 C         -0.7899476650       -1.1388505346        0.7438661110
 H         -1.2573726022       -1.1549627723        1.7397688826
 O         -0.5713542615       -2.4873021875        0.3270605959
 C         -2.6272798232        0.5891650691        0.2744356950
 H         -3.2034718615        0.2422708622        1.1368488964
 H         -3.3171037558        0.9252022850       -0.5011742501
 O         -1.8374469922        1.6864143045        0.7189580775
 C          0.3848396023       -3.2535482378        0.9913480478
 H          0.4081191023       -3.0224518256        2.0709880230
 C          2.7218583279       -3.7845926984        0.5006450727
 H          3.1125785800       -3.7669169766        1.5304308678
 O          1.6114288617       -2.9201845847        0.3820282206
 C         -0.0058865184       -4.7233558894        0.8009308343
 H         -0.3442000177       -4.8455301347       -0.2405569816
 O         -1.0448177987       -5.0064507759        1.6982444933
 H         -1.1332089625       -5.9694881300        1.7336326253
 C          1.1871614133       -5.6668427559        1.0405577026
 H          1.4741601091       -5.6267089185        2.0974990538
 O          0.8008218791       -6.9891373778        0.7824517189
 H          0.8121061114       -7.1033941883       -0.1784636150
 C          2.3569725734       -5.2316175164        0.1465686369
 H          3.2314014427       -5.8720912677        0.3531038692
 O          1.9429628106       -5.4009001009       -1.1847999943
 H          2.4163669147       -4.7500108360       -1.7358850847
 C          3.7621787997       -3.1800632828       -0.4618837381
 H          4.6487437544       -3.8170334832       -0.4981501836
 H          4.0449354732       -2.1887165142       -0.0875614415
 O          3.2700416015       -3.0935481178       -1.7736339992
 H          2.4881616419       -2.5125734177       -1.7816142216
 C         -1.8580948778        2.8191118841       -0.0995566713
 H         -1.5874981315        2.5656411855       -1.1433324526
 C         -3.3244221623        4.4220526209       -1.0009175077
 H         -3.1729606915        4.0250124903       -2.0167552890
 O         -3.1597383804        3.3460174798       -0.0792146677
 C         -0.8228846346        3.8381025375        0.4467052222
 H         -0.5316290806        3.5237940058        1.4562183394
 O          0.2746199910        3.9182488027       -0.4203815377
 H          1.0835110204        3.5830542145        0.0142142968
 C         -1.5041353914        5.2156130869        0.5614798809
 H         -0.7320296624        5.9749606059        0.7209864837
 O         -2.3675823314        5.2947641115        1.6671009433
 H         -3.0026581036        4.5666316452        1.5864598686
 C         -2.2626861076        5.5384842653       -0.7393051040
 H         -1.5446939407        5.5629973425       -1.5640659684
 O         -2.8258209529        6.8181082352       -0.6593721220
 H         -3.1380409279        6.9384276205        0.2490551104
 C         -4.7581306335        4.9143144737       -0.8588145538
 H         -4.9534777592        5.2264048091        0.1638260862
 H         -5.4427319937        4.1101430868       -1.1125568980
 H         -4.9179512693        5.7549399791       -1.5264835638
 H          1.8672055209        1.8149092395        1.3594422943
  72
  -125.09162001999999        4.2248547223545882E-005 !
 C          3.4724650724        1.7908897638       -0.6426355447
 H          4.1980588424        2.6143694324       -0.6409774050
 O          4.0852174500        0.7659735596       -1.3565889582
 H          3.4249385883        0.0784971748       -1.5451217150
 C          1.0913791921        1.6711506107       -1.0542117751
 H          0.6367573193        1.5338115104       -2.0444821991
 O          2.3390051323        2.3095959377       -1.2851196513
 C          3.1803003456        1.3678979531        0.8111506179
 H          2.8478062092        2.2448195009        1.3784244110
 N          4.4341845440        0.9139398433        1.3716362531
 H          4.9577467984        0.3469532653        0.7155015480
 C          4.5626741353        0.5046009652        2.6950769600
 O          3.4715274646        0.8523762644        3.5088642878
 C          5.2518217733       -0.7932145345        2.9912924978
 H          6.1746680552       -0.8530324080        2.4201950374
 H          4.6334844398       -1.6635316527        2.7323441728
 H          5.4978963818       -0.8588460792        4.0506356050
 C          2.0600853064        0.2933604652        0.8669688028
 H          2.5426676258       -0.6953916913        0.9339204563
 O          1.2022217062        0.4916165289        1.9639460860
 H          1.7697675108        0.6207766526        2.7426928055
 C          1.1892583117        0.2894320152       -0.4018589294
 H          0.1769535089       -0.0130853401       -0.1224068126
 O          1.7107803301       -0.6213729163       -1.3736540471
 C          0.2235556252        2.6291514921       -0.2083484541
 H          0.0452217928        3.5413558761       -0.7901638954
 H          0.7622364121        2.8885789287        0.7042215718
 O         -0.9884110853        2.0777890797        0.2501792878
 C          1.0725028226       -1.8414089313       -1.5083219069
 H          1.6523103910       -2.3654791427       -2.2890077190
 C         -0.9079105518       -2.8075478126       -2.3364196150
 H         -0.3373288245       -3.3001032988       -3.1426112919
 O         -0.2468973675       -1.6205770543       -1.9510912448
 C          1.0513839449       -2.7171268083       -0.2440105139
 H          0.4523658090       -2.2153061719        0.5324298281
 O          2.3636729671       -2.9268278908        0.2102925100
 H          2.3517009600       -3.7465526864        0.7255347627
 C          0.3842815448       -4.0603329479       -0.5897928036
 H          1.0053473771       -4.5860301183       -1.3248453922
 O          0.3350990047       -4.8793419444        0.5472499617
 H         -0.4273663552       -4.5901932161        1.0687881650
 C         -1.0163404323       -3.8001146040       -1.1630253471
 H         -1.4348314384       -4.7462640413       -1.5463569906
 O         -1.8053860217       -3.3251972206       -0.1012895603
 H         -2.5718727274       -2.8671379037       -0.4958761916
 C         -2.2831137177       -2.3986986233       -2.8892725745
 H         -2.7934555479       -3.2865262133       -3.2717310754
 H         -2.1238351122       -1.6946053397       -3.7143207774
 O         -3.1259955212       -1.8432303465       -1.9145425449
 H         -2.7291299770       -1.0151673147       -1.5889321539
 C         -1.9992888112        1.8160400958       -0.7035026309
 H         -1.5882426336        1.8227146264       -1.7201090880
 C         -3.1039188423        0.2481450648        0.7571904618
 H         -3.9124066379       -0.4508483398        0.5081264927
 O         -2.4993825145        0.5268227231       -0.5212568378
 C         -3.1084151695        2.9046720058       -0.6222373112
 H         -2.6736674522        3.7935668038       -0.1506794036
 O         -3.4989176865        3.3202994143       -1.9025998457
 H         -4.1315308294        2.6911890022       -2.2687102914
 C         -4.2870920367        2.3996970132        0.2351604803
 H         -4.9622331633        1.8100409872       -0.3985661561
 O         -5.0519407733        3.4505590522        0.7517576339
 H         -4.5753942845        3.8081862445        1.5139617952
 C         -3.7465996489        1.5052171343        1.3714449378
 H         -4.5942136060        1.1961542247        1.9948036478
 O         -2.9148913834        2.2450443015        2.2249559029
 H         -2.0323818231        2.2997855879        1.8252242864
 C         -2.1240544282       -0.4331321867        1.7085613533
 H         -1.2325947109        0.1707957526        1.8573410310
 H         -1.8343139862       -1.3981431466        1.3020190566
 H         -2.6109434159       -0.5855282917        2.6678446806
 H          3.7450414461        0.7533579802        4.4260763482
  72
  -125.09161940000000        4.2220837853846435E-005 !
 C          3.4697964837        1.8045056527       -0.6312175277
 H          4.1939565399        2.6292252554       -0.6248755719
 O          4.0852745883        0.7838980841       -1.3491258145
 H          3.4265722100        0.0957484196       -1.5407903923
 C          1.0894800563        1.6825563854       -1.0476244741
 H          0.6374934628        1.5478788966       -2.0394730734
 O          2.3364874655        2.3241136065       -1.2731386070
 C          3.1768199313        1.3742017585        0.8201113911
 H          2.8453524490        2.2485686879        1.3920751406
 N          4.4309968155        0.9150082518        1.3783349779
 H          4.9581291657        0.3620896173        0.7129902907
 C          4.5508157544        0.4704669963        2.6909047053
 O          3.4695450427        0.8251972138        3.5141100591
 C          5.2113777082       -0.8486607576        2.9577620296
 H          5.4571396975       -0.9429873473        4.0149868895
 H          6.1318423439       -0.9173077034        2.3838492580
 H          4.5730821907       -1.6988756260        2.6811061330
 C          2.0558669868        0.3005794401        0.8712371652
 H          2.5377532484       -0.6884819784        0.9373207902
 O          1.1959706353        0.4973412597        1.9670013987
 H          1.7622461519        0.6200499563        2.7477879290
 C          1.1881109241        0.2989245041       -0.3995478086
 H          0.1756342556       -0.0061468753       -0.1235635882
 O          1.7136223026       -0.6082588623       -1.3726402422
 C          0.2183035680        2.6362600428       -0.2003156833
 H          0.0387718869        3.5496654499       -0.7798697749
 H          0.7553219134        2.8942965606        0.7136541667
 O         -0.9930336165        2.0810510203        0.2550704477
 C          1.0799168039       -1.8304016378       -1.5097864945
 H          1.6626729586       -2.3513778060       -2.2903143641
 C         -0.8958419054       -2.8024653257       -2.3420138042
 H         -0.3222967977       -3.2921373424       -3.1478466973
 O         -0.2396065260       -1.6136714700       -1.9542045004
 C          1.0600570724       -2.7079343441       -0.2466752869
 H          0.4584083866       -2.2090896068        0.5296267615
 O          2.3723659236       -2.9143277126        0.2093318757
 H          2.3622502285       -3.7355309468        0.7222843186
 C          0.3977284146       -4.0528800833       -0.5947174697
 H          1.0215282447       -4.5760395424       -1.3292684746
 O          0.3495017139       -4.8728829736        0.5417007986
 H         -0.4149594789       -4.5868261696        1.0620716346
 C         -1.0028084213       -3.7965995577       -1.1698408688
 H         -1.4176033550       -4.7437126388       -1.5548057973
 O         -1.7951412755       -3.3253923473       -0.1088905025
 H         -2.5616675099       -2.8680296895       -0.5042742639
 C         -2.2716359661       -2.3975442211       -2.8960994182
 H         -2.7795250482       -3.2869951848       -3.2780873065
 H         -2.1139170127       -1.6936810035       -3.7216264173
 O         -3.1163804135       -1.8434273818       -1.9220546427
 H         -2.7207663835       -1.0150664930       -1.5957206493
 C         -2.0013418248        1.8175615957       -0.7011132028
 H         -1.5883575516        1.8283145963       -1.7169037450
 C         -3.1030297352        0.2421092225        0.7536554712
 H         -3.9092198152       -0.4582599581        0.5010597901
 O         -2.4968352955        0.5261288673       -0.5228756713
 C         -3.1144371191        2.9019720557       -0.6192911659
 H         -2.6829498906        3.7921822459       -0.1472140297
 O         -3.5058215426        3.3168615753       -1.8996005016
 H         -4.1334905785        2.6839862935       -2.2677816112
 C         -4.2918675427        2.3927207486        0.2374703712
 H         -4.9669703768        1.8045957800       -0.3977203658
 O         -5.0570114044        3.4412369930        0.7585099192
 H         -4.5809966279        3.7944873642        1.5232168571
 C         -3.7500663545        1.4954322112        1.3708309300
 H         -4.5975156185        1.1818087509        1.9921191319
 O         -2.9217643779        2.2349901790        2.2279256785
 H         -2.0390438175        2.2943653241        1.8292506256
 C         -2.1230370252       -0.4391854109        1.7048529985
 H         -1.2330796571        0.1663548308        1.8558696813
 H         -1.8308091372       -1.4028048978        1.2970141009
 H         -2.6106870023       -0.5942449930        2.6632591719
 H          3.7420252072        0.6992055252        4.4284165403
  72
  -125.09161557000000        4.2050067890444228E-005 !
 C          3.4746808301        1.7783588833       -0.6537438018
 H          4.2014419805        2.6008150814       -0.6569328245
 O          4.0868853224        0.7478262726       -1.3599782690
 H          3.4257912964        0.0602893994       -1.5453502304
 C          1.0935948217        1.6601854807       -1.0647374470
 H          0.6373642134        1.5185213981       -2.0536443707
 O          2.3424880871        2.2940730431       -1.3009579367
 C          3.1805551804        1.3655864570        0.8026539051
 H          2.8465584613        2.2462577428        1.3631331019
 N          4.4331745100        0.9170303185        1.3685070315
 H          4.9556960863        0.3385686537        0.7216872974
 C          4.5652363594        0.5362069950        2.7002388073
 O          3.4663797672        0.8816173294        3.5051132770
 C          5.2739918348       -0.7451586660        3.0211187940
 H          4.6700186469       -1.6299189933        2.7770578785
 H          5.5187600615       -0.7873316870        4.0820759467
 H          6.1993679623       -0.8003129826        2.4530496115
 C          2.0606013774        0.2909238894        0.8632946882
 H          2.5432479436       -0.6975842178        0.9345795742
 O          1.2027310534        0.4939246898        1.9594189355
 H          1.7699563839        0.6307315268        2.7371431482
 C          1.1895546836        0.2815879648       -0.4055407734
 H          0.1769773797       -0.0179672994       -0.1240844756
 O          1.7093298154       -0.6346974349       -1.3731096371
 C          0.2287636527        2.6246522504       -0.2232189438
 H          0.0509868020        3.5337529329       -0.8101052834
 H          0.7692937075        2.8886563916        0.6868843898
 O         -0.9831919081        2.0778578452        0.2408160881
 C          1.0659702205       -1.8522268633       -1.5054379181
 H          1.6438455581       -2.3803761129       -2.2847683261
 C         -0.9172950647       -2.8129255080       -2.3323216200
 H         -0.3477858284       -3.3088977729       -3.1371600124
 O         -0.2525262866       -1.6273573347       -1.9490707941
 C          1.0414124645       -2.7247047491       -0.2390157072
 H          0.4441082735       -2.2188219773        0.5361164161
 O          2.3530419645       -2.9374020854        0.2156020690
 H          2.3382120086       -3.7543125294        0.7351496193
 C          0.3697990101       -4.0665081237       -0.5816603666
 H          0.9895807816       -4.5964710154       -1.3147442252
 O          0.3164090446       -4.8822262732        0.5575881278
 H         -0.4456399529       -4.5888994246        1.0774213890
 C         -1.0293812137       -3.8027740713       -1.1569392924
 H         -1.4504501349       -4.7483648645       -1.5387808543
 O         -1.8180246362       -3.3234544909       -0.0968736724
 H         -2.5830740521       -2.8643650226       -0.4931346726
 C         -2.2908084598       -2.4009683561       -2.8871033046
 H         -2.8032061390       -3.2880496145       -3.2685870768
 H         -2.1289144406       -1.6986949735       -3.7132227448
 O         -3.1332878086       -1.8416458234       -1.9141536275
 H         -2.7337689320       -1.0150308974       -1.5880209589
 C         -1.9967519825        1.8127164258       -0.7091997418
 H         -1.5877163062        1.8144841917       -1.7267490692
 C         -3.1004173680        0.2523076817        0.7604230995
 H         -3.9136074966       -0.4425867196        0.5150432256
 O         -2.4978304235        0.5251040695       -0.5202761600
 C         -3.1044427361        2.9026343661       -0.6310370757
 H         -2.6655061662        3.7968374246       -0.1738433832
 O         -3.5050353474        3.3032045965       -1.9132207915
 H         -4.1318534055        2.6638537780       -2.2714073536
 C         -4.2774048580        2.4097021810        0.2418549922
 H         -4.9650727708        1.8250626093       -0.3829452444
 O         -5.0260199193        3.4690341446        0.7650710947
 H         -4.5398423043        3.8188473825        1.5249428178
 C         -3.7339247887        1.5135659365        1.3753593366
 H         -4.5793219016        1.2087892525        2.0038899374
 O         -2.8950104112        2.2514263325        2.2235187233
 H         -2.0149624162        2.3040468594        1.8179757623
 C         -2.1212239046       -0.4327539119        1.7096925926
 H         -1.2277179414        0.1684045936        1.8573300907
 H         -1.8354022841       -1.3984302222        1.3020577449
 H         -2.6069500086       -0.5841742294        2.6696992044
 H          3.7378485103        0.8005575139        4.4245978045
  72
  -125.09160500999999        4.1582793478630080E-005 !
 C          2.8217716922        2.0352547713       -0.2790223426
 H          3.6375754782        2.7260299305       -0.5254423042
 O          2.6399272225        1.2483459839       -1.4143647729
 H          1.8100888909        0.7382262035       -1.3230303235
 C          0.5366722022        2.1832707999        0.4221809321
 H         -0.1769809619        2.2323560176       -0.4101484471
 O          1.7294552528        2.8526218297        0.0219982616
 C          3.2012999123        1.2364007155        0.9926598427
 H          3.3198083585        1.9965047505        1.7727854197
 N          4.4754772800        0.5440917071        0.8439484528
 H          5.0630927304        0.6317897553        1.6599726207
 C          4.5276809231       -0.7699226771        0.3265585919
 O          4.2323118278       -0.9164252852       -1.0206332712
 C          5.6494012282       -1.6361817890        0.8052736069
 H          5.5475314107       -1.8513078864        1.8691514278
 H          6.6281047802       -1.1679362884        0.6458815898
 H          5.6362413012       -2.5710271354        0.2517844527
 C          2.0361773658        0.3062881165        1.4020073875
 H          2.2951498178       -0.7080607853        1.0524540755
 O          1.8433421228        0.3068330022        2.8005800111
 H          2.6398050821       -0.0251881895        3.2290531654
 C          0.6886004041        0.6943798850        0.7652303153
 H         -0.0910975575        0.4495411862        1.4987015337
 O          0.4270128288       -0.0123980585       -0.4467011648
 C         -0.0602976728        2.9339028781        1.6284928691
 H         -0.1959671242        3.9877112597        1.3592878392
 H          0.6225720030        2.8563629174        2.4772408805
 O         -1.2690550931        2.3577435120        2.0733824619
 C          0.1557146157       -1.3686386268       -0.3463000003
 H         -0.3614943374       -1.5966754723        0.6063409481
 C          1.3001427282       -3.4576275509       -0.4487926391
 H          0.7993233151       -3.8336237660        0.4595528047
 O          1.3873947336       -2.0486914711       -0.4000971852
 C         -0.7588643341       -1.7564255405       -1.5148093297
 H         -0.2969203941       -1.3856637040       -2.4427078193
 O         -2.0152509146       -1.1585949125       -1.3164813329
 H         -2.6555628383       -1.6679958980       -1.8357414867
 C         -0.9038551975       -3.2845318580       -1.6050704478
 H         -1.4466937716       -3.6458428064       -0.7234492096
 O         -1.6835302551       -3.6222348786       -2.7200991648
 H         -1.0984643571       -3.5862016619       -3.4903647062
 C          0.4924342702       -3.9178649411       -1.6719691421
 H          0.3955021685       -5.0167785664       -1.6351772379
 O          1.0653821068       -3.5252603590       -2.8914014258
 H          2.0356198807       -3.5316850983       -2.7742174527
 C          2.7479619658       -3.9812856443       -0.4840179973
 H          2.7258392869       -5.0734760121       -0.5389699775
 H          3.2482347961       -3.6809942700        0.4437251510
 O          3.4535779599       -3.5273430329       -1.6047557823
 H          3.6811669719       -2.5822575779       -1.4710074085
 C         -2.4161961036        2.6639829193        1.3604361582
 H         -2.5788146440        3.7671578724        1.3293751893
 C         -3.4357038040        2.4150542570       -0.7707081936
 H         -3.7006423595        3.4860011301       -0.7435278087
 O         -2.2956131207        2.1903951110        0.0393707710
 C         -3.5978679943        1.9848630444        2.0955310137
 H         -3.3376199847        0.9296756828        2.2293761005
 O         -3.7666401501        2.4906754139        3.3861396250
 H         -4.1782228815        3.3619107729        3.3416327533
 C         -4.8816975805        2.1044576478        1.2468409862
 H         -5.1953742772        3.1569428652        1.2214504285
 O         -5.9471187699        1.3998869412        1.8156468481
 H         -5.7971725019        0.4612923972        1.6346804405
 C         -4.6059190992        1.6105015260       -0.1913813367
 H         -5.5129504763        1.7605549826       -0.7905548214
 O         -4.3460843152        0.2296762661       -0.1750729922
 H         -3.3869702278        0.0897041509       -0.2095999325
 C         -3.0720593559        1.9944495315       -2.1879790660
 H         -2.2807246122        2.6337429971       -2.5680550542
 H         -3.9424378573        2.0738310271       -2.8323374487
 H         -2.7146209848        0.9685929842       -2.1787639168
 H          3.7438285047       -0.1244474741       -1.3242510779
  72
  -125.09154344000000        3.8959919284204536E-005 !
 C          3.1206278742        2.1784857839        0.7343876432
 H          3.9582582681        2.6010158715        1.3023687552
 O          3.0708691506        2.8087092993       -0.4897979596
 H          2.8422212878        2.1353398258       -1.1609628001
 C          0.8266963532        1.8006757412        1.1507545468
 H          0.6881973846        1.8909078307        0.0642021533
 O          1.9919123421        2.4905432255        1.5453354634
 C          3.2718892680        0.6276334793        0.5741063480
 H          4.3264601087        0.3685236509        0.6890577429
 N          2.8242806756        0.2416370764       -0.7444412442
 H          1.8267647277        0.0460468139       -0.7591469702
 C          3.5374128193       -0.7000281918       -1.5277712400
 O          2.8572920142       -1.0599220079       -2.6846024093
 C          5.0011138132       -0.4626947671       -1.7445472944
 H          5.2180493666        0.5916836896       -1.9400329154
 H          5.3134500644       -1.0492344552       -2.6033384765
 H          5.5864712611       -0.7731372053       -0.8797228565
 C          2.4434650488       -0.0564180225        1.6834945747
 H          2.5749327114       -1.1391846400        1.6133097619
 O          2.8756139575        0.2987419241        2.9669644031
 H          2.7295137944        1.2489701655        3.0811051178
 C          0.9475684419        0.2964545801        1.4882652750
 H          0.4222824447        0.0624691953        2.4247289224
 O          0.3195749237       -0.3890823533        0.4135359662
 C         -0.3960283821        2.4255809973        1.8152533175
 H         -0.4383786167        3.4961915049        1.5890679084
 H         -0.3549364614        2.2979429979        2.9052765130
 O         -1.5144982994        1.7444244420        1.2813428296
 C          0.1711562395       -1.7648045795        0.5304302856
 H         -0.1215644564       -2.0514872258        1.5576229334
 C          1.3870989323       -3.7544117976        0.0614879978
 H          0.9855605794       -4.2235433094        0.9731680255
 O          1.4129466610       -2.3483476087        0.2077823760
 C         -0.9611432630       -2.1597174466       -0.4296865418
 H         -0.8384029996       -1.5696353790       -1.3508491371
 O         -2.1542375334       -1.8201517941        0.2239611101
 H         -2.8845849305       -1.9874703305       -0.3857278178
 C         -0.9465408453       -3.6581922306       -0.8000393939
 H         -1.3311017095       -4.2309246450        0.0512625184
 O         -1.8202303446       -3.9021554480       -1.8670333489
 H         -1.3672106228       -3.6332574761       -2.6781890454
 C          0.4839903383       -4.1076680527       -1.1291539092
 H          0.4951155980       -5.1966003829       -1.2935456524
 O          0.8793550345       -3.4287044802       -2.2966911105
 H          1.8390141209       -3.5682156479       -2.4016950817
 C          2.8448168317       -4.2031822831       -0.1366604359
 H          2.8694937732       -5.2894787754       -0.2543946571
 H          3.4165759196       -3.9303602679        0.7591786136
 O          3.4256378677       -3.6614272611       -1.2877886885
 H          3.5215962553       -2.6881092186       -1.1805067565
 C         -2.7640925892        2.1945730821        1.7296718494
 H         -2.7681374354        2.2762416162        2.8303597327
 C         -3.3058998908        3.6839378499       -0.1014455665
 H         -3.7747561759        4.6748993061       -0.1329920749
 O         -3.0980818010        3.4821473368        1.3011512785
 C         -3.8129407995        1.1514934293        1.2979079165
 H         -3.4570674422        0.1523499406        1.5716348013
 O         -5.0134507668        1.3607348726        1.9900944606
 H         -5.2338379626        2.3003150541        1.9482930025
 C         -4.0042267417        1.2130328858       -0.2247928158
 H         -4.8672812736        0.5883227600       -0.4956496846
 O         -2.8974458141        0.7056118121       -0.9342653300
 H         -2.1272455018        0.7091466012       -0.3479585918
 C         -4.3184160116        2.6588754277       -0.6731797501
 H         -5.3187556686        2.9229163835       -0.3068891528
 O         -4.3787383504        2.7173574647       -2.0713313878
 H         -3.7004481049        2.1098387648       -2.4018896577
 C         -2.0108089964        3.7567228513       -0.9103995091
 H         -2.2531091262        4.0841210352       -1.9181251547
 H         -1.5094510340        2.7951812144       -0.9580879583
 H         -1.3429391545        4.4863855947       -0.4591484035
 H          1.9499545383       -1.3187525969       -2.4735297459
  72
  -125.09153619000000        3.8662165818410418E-005 !
 C          2.7358925992        0.9862082621       -1.7165600998
 H          3.6164365362        1.5050686439       -2.1173835020
 O          2.9789949530       -0.3710165849       -1.9287727536
 H          2.1329077519       -0.8543924051       -1.8262450990
 C          0.3432561967        1.2530806494       -1.9374780681
 H         -0.2437356459        0.7867260566       -2.7385661555
 O          1.6536660674        1.4680234004       -2.4564749077
 C          2.5692008811        1.3612993944       -0.2223145489
 H          2.4178164824        2.4461798159       -0.2150437618
 N          3.7775688238        1.0767988960        0.5438505485
 H          4.0257149296        1.8265446793        1.1724227365
 C          3.9546362317       -0.1818808836        1.1616415780
 O          4.1805092635       -1.2568771749        0.3167148217
 C          4.7590346777       -0.2125678743        2.4219284303
 H          5.7667871690        0.1957435836        2.2789773747
 H          4.8637767874       -1.2437410511        2.7485335992
 H          4.2704282194        0.3614883624        3.2093170946
 C          1.3057788133        0.6878874639        0.3607917772
 H          1.6256194958       -0.2392898984        0.8600710432
 O          0.6649182918        1.5409335648        1.2932571622
 H          1.2303004958        1.6241430637        2.0691651721
 C          0.2803344414        0.3159369141       -0.7271643259
 H         -0.7238589672        0.3859243434       -0.2909086904
 O          0.4690512421       -1.0059679347       -1.2281434306
 C         -0.3047868039        2.6155970555       -1.6148891425
 H         -0.1822278235        3.2667994946       -2.4852210517
 H          0.1789632172        3.0794117197       -0.7523837185
 O         -1.6887567822        2.4410841064       -1.3795751255
 C          0.1161950831       -2.0588489218       -0.3960495689
 H         -0.7886208161       -1.8070973540        0.1886727811
 C          1.0627972827       -3.4252628614        1.3113071219
 H          0.1743479086       -3.3005944532        1.9537565193
 O          1.2038556879       -2.2987162800        0.4713748277
 C         -0.1727614679       -3.2783709859       -1.2803970112
 H          0.6895794581       -3.4177695919       -1.9519823932
 O         -1.3410632823       -3.0267610413       -2.0114541899
 H         -1.6330618182       -3.8747178955       -2.3746956808
 C         -0.3409417186       -4.5458824620       -0.4219073926
 H         -1.2546188587       -4.4523139189        0.1765465020
 O         -0.5187182783       -5.6626482731       -1.2513550759
 H          0.3621111950       -5.9218756248       -1.5580339393
 C          0.8843284871       -4.7098564639        0.4873011628
 H          0.7134320453       -5.5504537825        1.1822671524
 O          1.9778877960       -4.9895522439       -0.3467158248
 H          2.7849254249       -4.7111825389        0.1283233558
 C          2.3202762977       -3.4775644060        2.1992005833
 H          2.2254045923       -4.3216458407        2.8885702211
 H          2.3727625278       -2.5489455089        2.7799481078
 O          3.4963634376       -3.6790505085        1.4677720030
 H          3.7274104494       -2.8470181893        0.9995452558
 C         -2.1447938451        2.7076865812       -0.1000923470
 H         -1.3914646845        2.4640176090        0.6703372996
 C         -2.9999820672        4.4889691379        1.2053337460
 H         -2.3561983950        4.1332931618        2.0259036690
 O         -2.4465763707        4.0897174072       -0.0354843102
 C         -3.3838923231        1.8301364167        0.1419026270
 H         -4.0126639114        1.8830339993       -0.7604377832
 O         -2.9306136821        0.5136448162        0.3394901824
 H         -3.7030306178       -0.0248818736        0.5569396729
 C         -4.1979211172        2.3008654271        1.3648211751
 H         -3.6613727287        2.0062625263        2.2740063793
 O         -5.4400245254        1.6443774631        1.3992075925
 H         -6.0424351259        2.1499604616        0.8338007081
 C         -4.3818861980        3.8279978120        1.3262398781
 H         -4.9068898253        4.1589114859        2.2281318709
 O         -5.1943342854        4.1755426256        0.2317315001
 H         -4.6088045707        4.2516013093       -0.5373195046
 C         -3.0868301761        6.0085914241        1.2193680389
 H         -2.1176117756        6.4306009981        0.9722148873
 H         -3.3914192913        6.3505462757        2.2039764281
 H         -3.8129934410        6.3451433511        0.4846794031
 H          3.8711788422       -1.0189832839       -0.5833646106
  72
  -125.09153212000000        3.8496011610973873E-005 !
 C          2.7484605822        0.9977081363       -1.7036272276
 H          3.6300233035        1.5176814165       -2.1006986251
 O          2.9869691190       -0.3580960532       -1.9293400163
 H          2.1396055993       -0.8398181555       -1.8299072816
 C          0.3565132465        1.2696374930       -1.9209682205
 H         -0.2297644077        0.8088933265       -2.7258590803
 O          1.6669452403        1.4904364320       -2.4371604761
 C          2.5854537503        1.3596230570       -0.2055450604
 H          2.4397228931        2.4452124389       -0.1883968696
 N          3.7935969678        1.0618948869        0.5556547148
 H          4.0485859003        1.8052868192        1.1890217924
 C          3.9655554841       -0.2023625055        1.1635514571
 O          4.1790095025       -1.2731104190        0.3100274029
 C          4.7792891275       -0.2471160779        2.4175942210
 H          4.3031305703        0.3288889119        3.2110502939
 H          5.7903696104        0.1505628838        2.2683780915
 H          4.8753196930       -1.2807970172        2.7391240089
 C          1.3185363946        0.6886772966        0.3732693365
 H          1.6340591884       -0.2413197488        0.8699650363
 O          0.6785722356        1.5411917541        1.3068911904
 H          1.2416885020        1.6191922905        2.0849995192
 C          0.2928757119        0.3243491121       -0.7170531398
 H         -0.7109819822        0.3934876314       -0.2797391957
 O          0.4791074420       -0.9949664035       -1.2258775230
 C         -0.2936986959        2.6283230173       -1.5874674112
 H         -0.1665791886        3.2894890318       -2.4496567728
 H          0.1847864629        3.0821585807       -0.7167229296
 O         -1.6784452077        2.4476926727       -1.3618275441
 C          0.1207721499       -2.0515296046       -0.4011412378
 H         -0.7872801207       -1.8018916255        0.1795790221
 C          1.0543744597       -3.4251470403        1.3077237443
 H          0.1635447225       -3.2991700094        1.9466744897
 O          1.2029420743       -2.2968044937        0.4716702555
 C         -0.1627494467       -3.2674579461       -1.2921175701
 H          0.7058986646       -3.4076957964       -1.9553947478
 O         -1.3230441414       -3.0115570102       -2.0341885392
 H         -1.6135082306       -3.8582671449       -2.4017017132
 C         -0.3428580871       -4.5362432823       -0.4378514055
 H         -1.2607357634       -4.4401586569        0.1537725163
 O         -0.5187099274       -5.6505460604       -1.2711526499
 H          0.3637524885       -5.9135522310       -1.5701452758
 C          0.8749343276       -4.7074361692        0.4801983976
 H          0.6945626620       -5.5479430929        1.1729453688
 O          1.9727613614       -4.9924582913       -0.3464369026
 H          2.7780049025       -4.7177047480        0.1338610449
 C          2.3080119806       -3.4827556189        2.2006934025
 H          2.2079535919       -4.3273114139        2.8886309762
 H          2.3613660788       -2.5548752665        2.7826319868
 O          3.4863269114       -3.6872656896        1.4737557951
 H          3.7186055231       -2.8576645860        1.0018613064
 C         -2.1468163221        2.7130437460       -0.0865331733
 H         -1.3974855390        2.4768809422        0.6903278472
 C         -3.0365537265        4.4912942965        1.2022808302
 H         -2.4023330650        4.1449567283        2.0342110790
 O         -2.4605055632        4.0925194698       -0.0284460180
 C         -3.3802589442        1.8246245557        0.1458892269
 H         -3.9975937347        1.8659755837       -0.7649303545
 O         -2.9166056065        0.5137611276        0.3566129113
 H         -3.6864646387       -0.0306169196        0.5688975580
 C         -4.2158412292        2.2934874852        1.3547358940
 H         -3.6894851810        2.0093010289        2.2731271756
 O         -5.4516616104        1.6247265796        1.3751388600
 H         -6.0503857109        2.1198134910        0.7966964257
 C         -4.4141994795        3.8184063136        1.3047195734
 H         -4.9566733034        4.1490357880        2.1963049513
 O         -5.2123844147        4.1521861925        0.1955505889
 H         -4.6153106291        4.2305377222       -0.5642787437
 C         -3.1376157823        6.0101339691        1.2081864482
 H         -2.1662697530        6.4404975419        0.9850199915
 H         -3.4713657997        6.3526764810        2.1831218640
 H         -3.8472758773        6.3371670557        0.4532990949
 H          3.8714237381       -1.0254501428       -0.5879166164
  72
  -125.09152829000000        3.8340307394096555E-005 !
 C          2.7466933982        0.9998910662       -1.7023294534
 H          3.6276384184        1.5197744663       -2.1009751806
 O          2.9833958464       -0.3557463969       -1.9318670513
 H          2.1361747490       -0.8371400975       -1.8297692594
 C          0.3542719375        1.2753503100       -1.9118366145
 H         -0.2354042955        0.8172550461       -2.7158012218
 O          1.6635416952        1.4944714349       -2.4318224832
 C          2.5886458312        1.3589072845       -0.2030617093
 H          2.4448806242        2.4447228543       -0.1834584264
 N          3.7988813518        1.0583012643        0.5540648569
 H          4.0529788731        1.7982514670        1.1918787360
 C          3.9729618283       -0.2091024029        1.1549908923
 O          4.1904468656       -1.2744896465        0.2960512418
 C          4.7842510522       -0.2591739954        2.4101982574
 H          4.8848897015       -1.2948852613        2.7239058468
 H          4.3028497245        0.3078784420        3.2069226960
 H          5.7936737002        0.1451147871        2.2662799800
 C          1.3222734044        0.6891399823        0.3782946604
 H          1.6384746700       -0.2420277189        0.8727590176
 O          0.6855881689        1.5409780825        1.3147007560
 H          1.2531318669        1.6212328379        2.0896225845
 C          0.2929070158        0.3280186739       -0.7095112919
 H         -0.7096907402        0.3972661878       -0.2693080555
 O          0.4764179429       -0.9903911521       -1.2214319557
 C         -0.2919528342        2.6349941142       -1.5742401406
 H         -0.1595055564        3.2985571555       -2.4338164085
 H          0.1853150772        3.0841300708       -0.7003001587
 O         -1.6781264071        2.4594633007       -1.3545014363
 C          0.1240699977       -2.0483871738       -0.3959776276
 H         -0.7770990117       -1.7982842324        0.1950807474
 C          1.0715817768       -3.4299386619        1.2985234330
 H          0.1872002840       -3.3039040506        1.9462971809
 O          1.2148435748       -2.2991342746        0.4647132459
 C         -0.1725838543       -3.2608965548       -1.2872800249
 H          0.6882404685       -3.4011265362       -1.9606021988
 O         -1.3403588744       -2.9994455700       -2.0155755988
 H         -1.6376809707       -3.8443243281       -2.3816500743
 C         -0.3465472765       -4.5319746039       -0.4352709363
 H         -1.2574578375       -4.4355093635        0.1669143449
 O         -0.5346470972       -5.6431094113       -1.2700294159
 H          0.3434745215       -5.9067783160       -1.5806905575
 C          0.8809016417       -4.7089946426        0.4685253066
 H          0.7067283034       -5.5519143916        1.1598665387
 O          1.9693261097       -4.9923258353       -0.3708920804
 H          2.7800476303       -4.7211437046        0.1021309403
 C          2.3333524972       -3.4948529425        2.1793997054
 H          2.2373384032       -4.3423630699        2.8643109922
 H          2.3945378734       -2.5699308031        2.7651354277
 O          3.5043622032       -3.6989322129        1.4405401465
 H          3.7358952760       -2.8663436596        0.9735609099
 C         -2.1501128989        2.7163677984       -0.0789635970
 H         -1.4027678204        2.4755828076        0.6984011413
 C         -3.0448074810        4.4862804205        1.2178001464
 H         -2.4132956534        4.1349971593        2.0495466268
 O         -2.4643507373        4.0951964298       -0.0133144036
 C         -3.3837249341        1.8256331254        0.1442446361
 H         -3.9972000175        1.8705586949       -0.7690894735
 O         -2.9186496006        0.5145004216        0.3506406448
 H         -3.6889422153       -0.0337931933        0.5506069725
 C         -4.2247886950        2.2873288269        1.3521626244
 H         -3.7033003859        1.9967534953        2.2713038610
 O         -5.4610970822        1.6191836978        1.3616220644
 H         -6.0573120934        2.1202277251        0.7856920182
 C         -4.4223894462        3.8125672158        1.3118999533
 H         -4.9681690092        4.1373133879        2.2036137658
 O         -5.2168729774        4.1530195698        0.2024177713
 H         -4.6175096898        4.2360955111       -0.5552357348
 C         -3.1463219267        6.0048427929        1.2329243825
 H         -2.1769407100        6.4367905320        1.0041804428
 H         -3.4724723672        6.3418583070        2.2122972899
 H         -3.8621475491        6.3351405973        0.4855142424
 H          3.8772865160       -1.0246964783       -0.5994933408
  72
  -125.09150696000000        3.7484610392238682E-005 !
 C          2.9997856227        1.7787495010       -0.3012476853
 H          3.0003054824        2.8720779759       -0.1718420623
 O          4.1629045490        1.3465803979       -0.9415233201
 H          4.2371772621        1.7917410957       -1.7936698605
 C          1.6135653043        0.1326520659       -1.3177499131
 H          2.4225570174       -0.2618614595       -1.9498176649
 O          1.8480560966        1.5118375494       -1.0561905220
 C          2.9346820362        1.1113258844        1.0886938332
 H          2.0649823393        1.5109094015        1.6199010061
 N          4.1005141962        1.4023654488        1.8736755269
 H          4.9462632185        1.0286371560        1.4630713900
 C          4.2659331298        2.7198612830        2.3528127777
 O          3.0943728009        3.3504954675        2.7218947639
 C          5.4709373646        2.9557639650        3.2074212289
 H          6.3542795919        2.5364116753        2.7340457146
 H          5.3699929906        2.4992714314        4.2016052412
 H          5.6199045630        4.0258315002        3.3415585866
 C          2.7620288878       -0.3982838244        0.9101087883
 H          3.6700842030       -0.8132631826        0.4434738418
 O          2.5484167131       -0.9743229769        2.1691040416
 H          2.1396850098       -1.8468146685        2.0505114555
 C          1.5724697092       -0.6972970783       -0.0226077006
 H          0.6547258376       -0.4519911473        0.5167957597
 O          1.6745149614       -2.0935877069       -0.3126507784
 C          0.2916281646        0.0556781460       -2.1013114898
 H          0.2453720273       -0.8892903899       -2.6389943482
 H          0.2498135638        0.8957008697       -2.8011628046
 O         -0.8641492515        0.0577755059       -1.2775632356
 C          0.5673980687       -2.9226642984       -0.2573595538
 H          0.9979304432       -3.9411719768       -0.2360016050
 C         -1.2708367475       -3.6763858741       -1.5536619336
 H         -0.8975250227       -4.7092505878       -1.4661829349
 O         -0.1891032343       -2.7671431581       -1.4391801005
 C         -0.3031269254       -2.7593169359        1.0000045990
 H         -0.6380665307       -1.7176948227        1.1036243273
 O          0.5009713319       -3.1220911260        2.0998791584
 H         -0.0712881891       -3.1587972305        2.8774913732
 C         -1.5700060932       -3.6310130507        0.9208085301
 H         -1.2987007686       -4.6863875746        1.0340901723
 O         -2.4259640367       -3.3166395367        1.9889952751
 H         -2.9200158387       -2.5261593833        1.7244412291
 C         -2.2738844380       -3.3964074009       -0.4312227600
 H         -3.1413377763       -4.0610022344       -0.5087254078
 O         -2.7683997582       -2.0840715585       -0.4949579427
 H         -2.0437766823       -1.4925932980       -0.7692861003
 C         -1.8646761480       -3.4594150566       -2.9497670092
 H         -2.1943193625       -2.4148785608       -3.0314809117
 H         -2.7217076222       -4.1194064696       -3.0952581486
 O         -0.9380532467       -3.7722599992       -3.9520869605
 H         -0.1104729111       -3.3279706684       -3.7298552199
 C         -1.1828683643        1.2870711363       -0.7128922608
 H         -0.2853443648        1.7871465264       -0.3095551888
 C         -2.0657404784        3.4015090997       -1.2480382419
 H         -1.1735846153        3.8335494640       -0.7678750922
 O         -1.7603173515        2.0978904564       -1.7141240468
 C         -2.1797410845        1.0537336690        0.4315562074
 H         -3.0310420396        0.4722646820        0.0413845294
 O         -1.5425997217        0.3270903683        1.4533079712
 H         -2.0392240834        0.4866386287        2.2682706734
 C         -2.6855140126        2.4061590323        0.9667120403
 H         -1.8631423565        2.9090430468        1.4888700170
 O         -3.6986519689        2.1942905557        1.9161699675
 H         -4.5316033339        2.1078856527        1.4295260585
 C         -3.1861190747        3.2751573455       -0.2020801254
 H         -3.4875881046        4.2575468298        0.1749592008
 O         -4.3354968674        2.6871962887       -0.7618369880
 H         -4.0351268860        2.0376788472       -1.4143332004
 C         -2.4846044726        4.2494270957       -2.4402939143
 H         -3.4200851013        3.8815562731       -2.8527316716
 H         -1.7186051683        4.1987094334       -3.2078634451
 H         -2.6154296542        5.2808812713       -2.1273766255
 H          2.9669663435        3.3083334608        3.6821195721
  72
  -125.09148557000000        3.6645684467766115E-005 !
 C          2.9006746344        2.4030454921        0.9554488485
 H          3.6080830222        3.0605227245        1.4794958207
 O          2.4669833635        2.9819339724       -0.2397060880
 H          2.1372436919        3.8691146311       -0.0546931469
 C          0.8367676423        1.3594723498        1.3552647625
 H          0.4649850901        1.7450640117        0.3964341071
 O          1.8343257737        2.2290295173        1.8610764236
 C          3.5928579576        1.0699564938        0.6289696503
 H          3.9869442185        0.6508618881        1.5578856302
 N          4.7166047062        1.3102231870       -0.2687548959
 H          4.3773426168        1.5143136346       -1.2025300302
 C          5.7899513462        0.4185315643       -0.2980325207
 O          5.7986122735       -0.5705801292       -1.2523349269
 C          6.5745195304        0.1914295828        0.9476901296
 H          6.1400097260       -0.6018809769        1.5691916534
 H          6.6194731432        1.1097103882        1.5260264628
 H          7.5828495418       -0.1226214283        0.6854430269
 C          2.5424569407        0.1020127199        0.0480668474
 H          2.1183599967        0.5587889720       -0.8595696591
 O          3.1712973624       -1.1123456561       -0.2705708663
 H          2.5385267616       -1.6869184043       -0.7361117834
 C          1.4231898297       -0.0368293444        1.0987018201
 H          1.8532221706       -0.4391413785        2.0276985811
 O          0.3402837854       -0.8519503900        0.6914687968
 C         -0.3360778402        1.3311094377        2.3448152727
 H         -0.4866554019        2.3504361883        2.7222949050
 H         -0.1076632485        0.6708034700        3.1830079247
 O         -1.5308687061        0.8273339603        1.7846240653
 C          0.5263026134       -2.2438514313        0.7099583337
 H          1.3794475034       -2.5313714018        1.3368430982
 C         -0.1457168743       -2.4844983531       -1.5745935524
 H         -0.0134167579       -3.3256722524       -2.2639314829
 O          0.8324700912       -2.7254707359       -0.5673979266
 C         -0.7418908810       -2.8937700932        1.3035004613
 H         -1.2997282043       -2.1055793451        1.8375823552
 O         -0.3394302744       -3.8928322522        2.2026669478
 H         -1.1179362907       -4.4130301758        2.4396326444
 C         -1.6285068398       -3.4617345538        0.1798568797
 H         -1.2392244744       -4.4408855473       -0.1186784207
 O         -2.9407981608       -3.6739421558        0.6267096650
 H         -3.3772035405       -2.8129853793        0.6812030800
 C         -1.5817384226       -2.4993777320       -1.0188156743
 H         -2.2664717327       -2.8557185731       -1.7963390287
 O         -2.0842849087       -1.2347436909       -0.6480150471
 H         -1.4420428924       -0.7719270423       -0.0783691410
 C          0.1373444745       -1.1898538246       -2.3532577453
 H          0.0108817269       -0.3180168215       -1.6996337165
 H         -0.5905318707       -1.1283763640       -3.1740770098
 O          1.4569735791       -1.2602833489       -2.8435412601
 H          1.6289462738       -0.4987467352       -3.4069483362
 C         -2.2046009785        1.6688494130        0.9155349098
 H         -2.1873130423        2.7156554873        1.2821253674
 C         -2.2046286313        2.4217861804       -1.3358994238
 H         -2.2868969348        3.4511278266       -0.9482955584
 O         -1.5837012860        1.6093672294       -0.3538945387
 C         -3.6655852074        1.1995387487        0.8366870212
 H         -3.6568863362        0.1168518751        0.6369288295
 O         -4.2771095340        1.4640463288        2.0710319940
 H         -5.2285291826        1.3404667000        1.9500058068
 C         -4.4265961999        1.9187067071       -0.2966805708
 H         -4.6093808431        2.9544563175        0.0146184253
 O         -5.6831620620        1.3168110170       -0.4770112570
 H         -5.5630184677        0.6151604374       -1.1359896022
 C         -3.6216767091        1.8931337093       -1.6095111877
 H         -4.1208108432        2.5304510804       -2.3483260392
 O         -3.6266204345        0.6015074170       -2.1541996706
 H         -3.0281209428        0.0299073737       -1.6357265769
 C         -1.3360724106        2.3978767063       -2.5861626816
 H         -1.6818790089        3.1524971413       -3.2861697217
 H         -1.4030702824        1.4212219470       -3.0569999249
 H         -0.3024166862        2.6005023188       -2.3197104282
 H          4.9112220180       -0.9693310087       -1.3069327526
  72
  -125.09144879999999        3.5247191319809296E-005 !
 C          2.5298331315        1.8995159496       -0.8225822796
 H          3.3136236249        2.6255097873       -1.0748761476
 O          2.6701625998        0.8660821980       -1.7518358561
 H          1.8335033813        0.3589473248       -1.7684394998
 C          0.1725172565        2.0663989088       -0.2955610135
 H         -0.6380652595        2.0659703140       -1.0348104052
 O          1.3205632611        2.5864835102       -0.9633851004
 C          2.7223675401        1.4420208255        0.6428329453
 H          2.6039055834        2.3483967261        1.2452310749
 N          4.0892359244        0.9486832084        0.8794061480
 H          4.4923918430        1.3236819727        1.7246621240
 C          4.4850322977       -0.3779986522        0.6964767534
 O          4.1129114904       -1.0132841594       -0.4679553454
 C          4.7559383087       -1.2759440128        1.8628192556
 H          5.3961783334       -0.7734025752        2.5865296589
 H          5.2631215824       -2.1708265718        1.5110208638
 H          3.8402716410       -1.5908082413        2.3868254080
 C          1.6163532504        0.4418601770        1.0413874907
 H          1.9777986777       -0.5796130838        0.8696176606
 O          1.2446762509        0.6062098004        2.3964510334
 H          1.9976228449        0.3856522356        2.9560911854
 C          0.3393239085        0.6255830152        0.1955688890
 H         -0.5158258534        0.3713233019        0.8341854880
 O          0.3249126632       -0.1930650551       -0.9687032345
 C         -0.2013065725        3.0271163571        0.8522599715
 H         -0.0817640538        4.0501079730        0.4724386781
 H          0.4507956383        2.8773208088        1.7142693482
 O         -1.5007154380        2.8493240362        1.3696877278
 C          0.0659132728       -1.5464087518       -0.8162741136
 H         -0.7465057862       -1.7134197942       -0.0835362519
 C          1.1746582902       -3.5824880744       -0.2777484793
 H          0.3818375764       -3.8685395366        0.4342184796
 O          1.2466814796       -2.1739447271       -0.3673623560
 C         -0.3623373706       -2.0865234573       -2.1869917680
 H          0.4158174964       -1.8050282980       -2.9144481716
 O         -1.5954160856       -1.5169489010       -2.5306117235
 H         -1.9494050616       -2.0383951814       -3.2651294210
 C         -0.4743882084       -3.6215178323       -2.1531617129
 H         -1.3051398668       -3.9047757034       -1.4963764522
 O         -0.7922094807       -4.1024334348       -3.4310225453
 H          0.0355453433       -4.1249496306       -3.9325489950
 C          0.8465869736       -4.2109887222       -1.6411254255
 H          0.7315736124       -5.3002054331       -1.5039017192
 O          1.8163564243       -3.9487254687       -2.6211746478
 H          2.6871665206       -3.9425679225       -2.1786149575
 C          2.5341188148       -4.0617785862        0.2633371414
 H          2.5088458104       -5.1508866798        0.3596354076
 H          2.6877901719       -3.6238132452        1.2568530023
 O          3.5977340512       -3.7538964635       -0.5923872372
 H          3.7541194929       -2.7866902659       -0.5728034152
 C         -2.5737906899        3.0429564353        0.4599355367
 H         -2.2761595265        3.7753054215       -0.3045599683
 C         -3.9118249262        1.0421618469        0.2969981432
 H         -4.8582603438        1.3869124554       -0.1459009478
 O         -2.8634892505        1.8655614499       -0.2171575769
 C         -3.7521441691        3.6338124047        1.2510857893
 H         -3.3463889004        4.4461326074        1.8735691310
 O         -4.6558982036        4.1356365580        0.2972609090
 H         -5.3693336227        4.5940407824        0.7562689318
 C         -4.4193713738        2.6048665855        2.2029014340
 H         -5.5069570969        2.7205131413        2.0950657009
 O         -4.1000616934        2.8647611173        3.5397744178
 H         -3.3900841001        2.2472497733        3.7841733372
 C         -4.0307709658        1.1578860295        1.8236166809
 H         -4.8081403943        0.4696100054        2.1725242333
 O         -2.8640997821        0.7677322642        2.4998144755
 H         -2.1313332194        1.3274210405        2.1812792353
 C         -3.6172000939       -0.3935816997       -0.1206351665
 H         -3.1591276303       -0.4048276869       -1.1052109094
 H         -4.5344962344       -0.9741130371       -0.1362586879
 H         -2.9287367658       -0.8429962821        0.5912622523
 H          3.7262153911       -0.3515880034       -1.0803997558
  72
  -125.09143831000000        3.4858094717429819E-005 !
 C          2.9642065659        2.1658983347        0.6779573595
 H          3.5298190856        2.9232885560        1.2325826703
 O          3.7838435430        1.7304663280       -0.3419747773
 H          3.4300353889        0.9011433167       -0.7026558766
 C          1.0660629566        2.1353105437       -0.7340920387
 H          1.6352986755        2.0500427993       -1.6720944804
 O          1.8262090378        2.8747746339        0.2082843265
 C          2.5127883184        1.0050364242        1.6190427815
 H          2.5419577527        1.3589498452        2.6640612654
 N          3.4108402492       -0.1258065296        1.4080892415
 H          4.3693412464        0.1723970521        1.5497118423
 C          3.1551924084       -1.3745334965        2.0002813076
 O          2.2971091259       -2.2038019897        1.2812197872
 C          4.2665046511       -2.0848390763        2.6938348794
 H          5.1218668572       -2.2685269772        2.0308923184
 H          3.9024813025       -3.0453972933        3.0476887552
 H          4.6169361473       -1.5012850543        3.5435736349
 C          1.0377891978        0.6640060556        1.3232122497
 H          0.8011246863       -0.3335046608        1.7033082056
 O          0.1743728939        1.5204364889        2.0178863960
 H          0.3262753330        2.4224703634        1.6974025999
 C          0.7822053409        0.7147174051       -0.2008080343
 H         -0.2608111348        0.4546139737       -0.3800569217
 O          1.6196883602       -0.2375250482       -0.8602636187
 C         -0.2221546206        2.9110424533       -1.0271685300
 H         -0.6597837394        2.5627638848       -1.9701744873
 H          0.0160753839        3.9781259703       -1.1130303903
 O         -1.1334105232        2.7056527677        0.0355680733
 C          0.9316360133       -1.2570957932       -1.5140160197
 H          0.3294735072       -0.8595978982       -2.3548583201
 C         -0.6270018485       -2.9807123553       -1.0034835377
 H         -1.1954736665       -2.7207720853       -1.9098385954
 O          0.0920072773       -1.8451014521       -0.5541517887
 C          1.9673096724       -2.2422697686       -2.0716781537
 H          2.7261856872       -2.4249273342       -1.2934882819
 O          2.5614642655       -1.6461284820       -3.1934554599
 H          3.0880338636       -2.3256259987       -3.6358522840
 C          1.3119959365       -3.5876222462       -2.4558280903
 H          0.7483886320       -3.4426003997       -3.3854163671
 O          2.3117701451       -4.5343352828       -2.7247386805
 H          2.5121755697       -4.9780867590       -1.8856942922
 C          0.3703548702       -4.0944441559       -1.3419919022
 H         -0.1628350665       -4.9784305188       -1.7087727266
 O          1.1180544853       -4.5306135907       -0.2386630310
 H          1.4012746032       -3.7741638998        0.3018447134
 C         -1.6114697729       -3.3513783483        0.1168295232
 H         -1.0609886734       -3.3993210947        1.0636637578
 H         -2.0347042645       -4.3348103709       -0.0996079751
 O         -2.6867425956       -2.4627991749        0.1868407679
 H         -2.3789595453       -1.5939189521        0.4931373907
 C         -2.4079580712        3.2914517287       -0.1242570648
 H         -2.3086794939        4.3397759719       -0.4418462371
 C         -3.6522761227        1.3669817223       -0.9271128885
 H         -4.7036845995        1.4269935519       -1.2385884186
 O         -3.1495884463        2.6941932475       -1.1328985354
 C         -3.0626328121        3.2690148165        1.2721325218
 H         -2.2527392949        3.1213330077        2.0062393501
 O         -3.6751081075        4.5149399642        1.4807437747
 H         -4.1732235215        4.4668477696        2.3065634425
 C         -4.0720860687        2.1101184880        1.4194307516
 H         -5.0553206238        2.4648520476        1.0891383022
 O         -4.2080884875        1.7363646306        2.7654519302
 H         -3.4872279685        1.1255731984        2.9756112295
 C         -3.6444755746        0.9220153803        0.5470886456
 H         -4.3772586701        0.1140543314        0.6551487198
 O         -2.4378139807        0.3594699495        1.0049107771
 H         -1.7387057500        1.0356006291        1.0402742336
 C         -2.9380783110        0.3646060006       -1.8303879072
 H         -3.3994083110       -0.6127299974       -1.7163294697
 H         -1.8880736800        0.2865662453       -1.5640949960
 H         -3.0150064350        0.6885953926       -2.8646157746
 H          1.8748713861       -1.6543852770        0.6056643247
  72
  -125.09141749000000        3.4098512673634351E-005 !
 C          2.7255844871        2.1848692950        0.0104715806
 H          3.4808669857        2.9608655892       -0.1505288990
 O          2.1137315551        1.9842619008       -1.2061391796
 H          1.5623175217        1.1857078220       -1.1602300978
 C          0.6420468182        2.0121783166        1.0826942381
 H          0.0557983090        2.1650471105        0.1660138630
 O          1.8495749925        2.7427601502        0.9962697975
 C          3.3730726932        0.9076196380        0.6145459754
 H          4.2284766411        1.2281343077        1.2170425477
 N          3.8697812855        0.0451969954       -0.4185821752
 H          3.1351584924       -0.3812621501       -0.9749279933
 C          4.8662853807       -0.9089929967       -0.0761457044
 O          5.2618071689       -1.7271635730       -1.1185244095
 C          6.0118442714       -0.4700451640        0.7843069843
 H          6.7892716129       -1.2238958234        0.7021433791
 H          5.7148917760       -0.3881664477        1.8298590391
 H          6.4301383454        0.4913532952        0.4652827771
 C          2.3740585446        0.2419281789        1.6059397253
 H          2.5691740465       -0.8361997811        1.6232099434
 O          2.5829881622        0.6997128181        2.9196855239
 H          2.5825729364        1.6659170864        2.8927719117
 C          0.9053267421        0.4979924488        1.2103312708
 H          0.2562691154        0.0823378543        1.9934852958
 O          0.5445595028       -0.0650859802       -0.0422705447
 C         -0.1833430759        2.5340900159        2.2618788873
 H         -0.3100060684        3.6191433227        2.1599897903
 H          0.3171347768        2.3138103381        3.2074166802
 O         -1.4408916509        1.8883549293        2.3492715605
 C          0.3506911522       -1.4400680590       -0.0949145098
 H          0.1870452107       -1.8597702668        0.9167944014
 C          1.4156794647       -3.3851204021       -0.9405072551
 H          1.2856782425       -3.9397274045        0.0039695753
 O          1.4982466713       -2.0014602084       -0.6740682890
 C         -0.9120593064       -1.6846612574       -0.9375978309
 H         -0.7844168988       -1.1513352508       -1.8920886032
 O         -2.0602508403       -1.2609124848       -0.2580181990
 H         -2.0337900487       -0.2976262840       -0.1262915981
 C         -1.0703313555       -3.1819858667       -1.2125164492
 H         -1.2623114448       -3.6941908993       -0.2571227429
 O         -2.1270653494       -3.4098060306       -2.1121697735
 H         -2.8839550253       -2.9040216414       -1.7883558663
 C          0.2165352274       -3.7270489745       -1.8426086287
 H          0.1364063052       -4.8235891989       -1.9156033150
 O          0.3961012651       -3.1795815997       -3.1260883607
 H         -0.4685713945       -3.2090202268       -3.5594249569
 C          2.7515319383       -3.7807577326       -1.5916408811
 H          2.6658094601       -4.8134211968       -1.9584717013
 H          3.5503484787       -3.7311890795       -0.8484186493
 O          3.1125574484       -2.9051167366       -2.6205335848
 H          2.3364450708       -2.7878760430       -3.1883197656
 C         -2.3965561669        2.2694514869        1.4178328915
 H         -2.4139237951        3.3768619817        1.3190705826
 C         -3.0634019360        2.1546106137       -0.8336539631
 H         -3.0152315620        3.2562099873       -0.8700393679
 O         -2.1445731332        1.7027838361        0.1529956308
 C         -3.7600302567        1.7789907809        1.9286902365
 H         -3.7310392297        0.6785294254        1.9488450479
 O         -4.0604959760        2.2981127914        3.1984951291
 H         -3.2987840936        2.1365436219        3.7685098488
 C         -4.8451104481        2.2422216684        0.9512498497
 H         -4.8828385374        3.3429476176        0.9724548956
 O         -6.0972785127        1.7052374800        1.2968560474
 H         -6.2265125954        1.8621877361        2.2402556981
 C         -4.5057573033        1.7590508765       -0.4688549609
 H         -5.1933935336        2.2523241930       -1.1757410298
 O         -4.6471663718        0.3682460062       -0.5563064891
 H         -5.4504122161        0.1402064623       -0.0683248762
 C         -2.6439530913        1.5626783869       -2.1711550959
 H         -2.8560257113        0.4983658579       -2.1724918577
 H         -1.5815311176        1.7275558326       -2.3262050401
 H         -3.2037570458        2.0367675403       -2.9714841967
 H          4.5300436848       -1.8725162505       -1.7366250463
  72
  -125.09139571999999        3.3321967528376557E-005 !
 C          2.6616522472        2.1684287388        1.1020595699
 H          3.6599829862        2.4523087242        1.4540407410
 O          2.2579316417        3.1865510526        0.2596972376
 H          1.3067865415        3.1131426455        0.0871540388
 C          0.6698147790        1.3641062830        2.0138853326
 H          0.3134929522        1.6216444839        1.0145162893
 O          1.8656226004        2.0821825887        2.2698461588
 C          2.7298667259        0.7700955203        0.3930915019
 H          3.7480596194        0.6293141823        0.0245390575
 N          1.8206087807        0.7040369937       -0.7272966917
 H          0.8916824735        0.3914727749       -0.4645194595
 C          2.2127943775        0.1105473903       -1.9406060849
 O          1.1330290780       -0.2220764086       -2.7496145528
 C          3.3873275562        0.7194022779       -2.6621503451
 H          3.4061563861        0.3320787277       -3.6766163195
 H          4.3274080191        0.4667229042       -2.1772960341
 H          3.3050087155        1.8101288228       -2.6973906870
 C          2.4231329050       -0.3193066112        1.4513634847
 H          2.5482959157       -1.3026608200        0.9911098929
 O          3.3278374898       -0.2819737011        2.5207817702
 H          3.2139670378        0.5609311824        2.9819754970
 C          0.9736952654       -0.1479266412        1.9731247345
 H          0.9151376158       -0.6097687910        2.9696269394
 O         -0.0434508368       -0.6884458485        1.1362672663
 C         -0.4410676223        1.7789451621        2.9790288167
 H         -0.0069412233        2.1656230589        3.9022127773
 H         -1.0771881541        0.9154610185        3.2020265631
 O         -1.2319774447        2.8603835516        2.4931941189
 C          0.0403451413       -2.0234855942        0.7596774581
 H          0.4434087173       -2.6511520329        1.5754130776
 C          0.9592159776       -3.3392733385       -0.9943230325
 H          1.2219962616       -4.1024153645       -0.2470630381
 O          0.8844724471       -2.0742195586       -0.3645288601
 C         -1.3898702784       -2.4869948728        0.4350347439
 H         -1.8747665608       -1.6875656315       -0.1478806475
 O         -2.0658560661       -2.6787194886        1.6489312476
 H         -2.8759241817       -3.1680078223        1.4512201018
 C         -1.4099793625       -3.7729780502       -0.4127592421
 H         -1.1300166170       -4.6237739898        0.2186060201
 O         -2.7187782299       -4.0218858581       -0.8575362208
 H         -2.8637591029       -3.4733655202       -1.6410728885
 C         -0.4228399624       -3.6338064051       -1.5835500133
 H         -0.4133466749       -4.5633436287       -2.1681681546
 O         -0.8535687012       -2.5798087468       -2.4151271366
 H         -0.1716311137       -1.8855531306       -2.4161714472
 C          2.0617134512       -3.2576041503       -2.0768574935
 H          1.6410904498       -2.8197481561       -2.9919656949
 H          2.4024858113       -4.2723322533       -2.2988769225
 O          3.1670368574       -2.5307913896       -1.6492089693
 H          2.9041951145       -1.5666602907       -1.6370476174
 C         -1.8584612772        2.7377617783        1.2638836066
 H         -2.6177377278        3.5467570182        1.2593048974
 C         -1.5134268624        3.0688533610       -1.0731727076
 H         -2.2846940155        3.8581772565       -1.0718781099
 O         -0.9365358977        2.9894474202        0.2158955284
 C         -2.5711839911        1.3933856858        1.0294816347
 H         -1.8436408193        0.5749573570        1.0598341663
 O         -3.5214918241        1.1095859265        2.0278099513
 H         -3.9899829920        1.9165943840        2.2724224370
 C         -3.2371088216        1.3934744335       -0.3569871209
 H         -4.0531956665        2.1367619741       -0.3720942273
 O         -3.7460287466        0.1115738553       -0.6410376250
 H         -4.1300144703       -0.2326086594        0.1772617896
 C         -2.2106935171        1.7487066907       -1.4420621839
 H         -2.7380459785        1.8779014552       -2.3998011956
 O         -1.2606545524        0.7179544930       -1.5625191754
 H         -1.7584975341       -0.1133635082       -1.5997280068
 C         -0.4013531620        3.4221774489       -2.0517635887
 H         -0.8096227855        3.5183809167       -3.0533229302
 H          0.3568429102        2.6449168233       -2.0463520764
 H          0.0581223467        4.3611780843       -1.7576444581
 H          0.3402652371        0.2703826533       -2.4766934726
  72
  -125.09132067000000        3.0777975166453515E-005 !
 C          2.5151741075        1.8995836249       -0.7680393510
 H          3.2877711410        2.6396172877       -1.0212128477
 O          2.6414024221        0.8891311981       -1.7288537522
 H          1.7937776683        0.4007848877       -1.7625438727
 C          0.1676958574        2.0322963756       -0.1951525608
 H         -0.6544101235        2.0542135954       -0.9212290853
 O          1.3011818765        2.5819998438       -0.8665905106
 C          2.7298768729        1.4039655694        0.6860825786
 H          2.5889522717        2.2970058560        1.3112851501
 N          4.0509233626        0.8938987145        1.0146157746
 H          4.7519205921        1.6248239064        0.9682677449
 C          4.5295903006       -0.3709004646        0.6455873670
 O          4.0484929313       -1.0238354344       -0.4734145809
 C          5.0530671317       -1.2643555610        1.7203871697
 H          5.6253812636       -2.0723764669        1.2716988343
 H          4.2512277306       -1.7123211790        2.3231569821
 H          5.6939306910       -0.6963194429        2.3906290681
 C          1.6459345028        0.3808572088        1.0678692142
 H          2.0175847389       -0.6304458454        0.8646133086
 O          1.3056465763        0.5002772438        2.4330043618
 H          2.1104053770        0.3789755375        2.9505088799
 C          0.3528346178        0.5780303852        0.2497298842
 H         -0.4875045595        0.2988914708        0.8977891729
 O          0.3220077042       -0.2098192062       -0.9365675113
 C         -0.1976418756        2.9480594587        0.9921318219
 H         -0.0286828284        3.9841633437        0.6713024958
 H          0.4213514237        2.7245765017        1.8629417013
 O         -1.5190498671        2.7945914634        1.4595172858
 C          0.0665101821       -1.5668958239       -0.8108186332
 H         -0.7562998645       -1.7473725755       -0.0922063051
 C          1.1660386450       -3.6060739021       -0.2681070879
 H          0.3649135651       -3.8919982462        0.4342612055
 O          1.2416042120       -2.1977704979       -0.3553529618
 C         -0.3341670358       -2.0938427324       -2.1950167227
 H          0.4653187253       -1.8171460794       -2.9013871922
 O         -1.5528129022       -1.5156751545       -2.5713548980
 H         -1.9043108773       -2.0532279459       -3.2955834330
 C         -0.4568826632       -3.6286458780       -2.1663281655
 H         -1.2984631176       -3.9076791786       -1.5215918909
 O         -0.7611037354       -4.1038004415       -3.4497451481
 H          0.0731282638       -4.1309176340       -3.9402490878
 C          0.8524413923       -4.2298208584       -1.6372587462
 H          0.7274815477       -5.3184496926       -1.5047548338
 O          1.8376756248       -3.9727318431       -2.6036539263
 H          2.7016681545       -3.9692019791       -2.1476724199
 C          2.5192674830       -4.0842090389        0.2892640126
 H          2.4953033049       -5.1731042873        0.3865723745
 H          2.6604785152       -3.6432503333        1.2833615712
 O          3.5924272207       -3.7748121829       -0.5544403266
 H          3.7383601774       -2.8061316448       -0.5389319447
 C         -2.5535090874        3.1363688375        0.5483737209
 H         -2.2008390507        3.9382001412       -0.1167844864
 C         -3.9557558955        1.2191033891        0.1156840950
 H         -4.8778136913        1.6385195091       -0.3146397454
 O         -2.8702950209        2.0632048164       -0.2733402439
 C         -3.7321635870        3.6818448750        1.3711382713
 H         -3.3134929315        4.3913844522        2.1010808038
 O         -4.5780707283        4.3400460567        0.4605507352
 H         -5.2880341645        4.7701365555        0.9513056368
 C         -4.4781468097        2.5774889512        2.1677927362
 H         -5.5548156964        2.7482166296        2.0286310101
 O         -4.2124552455        2.6696390918        3.5381035295
 H         -3.5340834422        2.0028035075        3.7385740293
 C         -4.1239021263        1.1684974006        1.6408798868
 H         -4.9359093798        0.4750555177        1.8849529161
 O         -2.9962368864        0.6632222457        2.3067590000
 H         -2.2365513112        1.2315328360        2.0792079990
 C         -3.6847460776       -0.1688631607       -0.4503820930
 H         -2.9929963056       -0.6980073354        0.1999543062
 H         -3.2351354957       -0.0879899750       -1.4348227943
 H         -4.6102386424       -0.7328415537       -0.5152572993
 H          3.6232415770       -0.3770741009       -1.0763109824
  72
  -125.09129120000000        2.9832975442537817E-005 !
 C          2.1848018220        2.3210313305        0.4045982365
 H          1.3685411547        3.0526489980        0.4673082458
 O          3.3504931054        3.0049140364        0.6581417469
 H          4.0690796936        2.3556636641        0.6835593037
 C          1.1045858842        1.1456267110       -1.3729521312
 H          1.4402686972        0.6609039819       -2.2992750899
 O          2.2678732052        1.7839245296       -0.9104704205
 C          1.9820448670        1.1562650552        1.3892121635
 H          1.9240890481        1.5492173163        2.4079093132
 N          3.1726809770        0.3144251683        1.2718214016
 H          3.2754581919       -0.0100557483        0.3143618868
 C          3.4115594809       -0.7296142762        2.1525808142
 O          3.3674026544       -1.9963860591        1.5498813716
 C          3.0777911627       -0.6122982568        3.5988997797
 H          2.0081859531       -0.7482163327        3.8094816126
 H          3.3700672130        0.3713250587        3.9573315583
 H          3.6242789082       -1.3625022103        4.1709334722
 C          0.6714349343        0.4019234209        1.0747306469
 H          0.6793830003       -0.5373108087        1.6418786245
 O         -0.4566672559        1.1024248639        1.5133715152
 H         -0.5887624748        1.8381188301        0.8908232660
 C          0.5833883465        0.0375651556       -0.4240319008
 H         -0.4711228906       -0.1557296673       -0.6659262148
 O          1.3373750298       -1.1616141245       -0.5818987856
 C          0.0089086284        2.1447337242       -1.7993212305
 H         -0.7152212543        1.6194363017       -2.4266532697
 H          0.4863884890        2.9450500278       -2.3759463927
 O         -0.6583778439        2.7335028417       -0.6860092265
 C          1.0361918710       -1.9466698155       -1.7075754463
 H          0.9830250513       -1.3358739489       -2.6201566852
 C         -0.4355350998       -3.5794529858       -0.6716960521
 H         -1.1389194794       -4.2512248209       -1.1792809289
 O         -0.2258424674       -2.5354720687       -1.6316364515
 C          2.1999115932       -2.9404143210       -1.8803497247
 H          2.9939650963       -2.6444039252       -1.1750851207
 O          2.6688757993       -2.8347084953       -3.1997563321
 H          3.2874432971       -3.5615458297       -3.3499731689
 C          1.7590650605       -4.3797379438       -1.5575633908
 H          1.2209538836       -4.7856308478       -2.4212350677
 O          2.8775363779       -5.2019404647       -1.3499568119
 H          3.1663654614       -5.0684658338       -0.4358730591
 C          0.8383299857       -4.3671103576       -0.3270368841
 H          0.5534080535       -5.3972302096       -0.0837830232
 O          1.5258288237       -3.9174937217        0.8091348596
 H          1.8087480951       -2.9917835661        0.7015974526
 C         -1.1305835244       -3.0141815502        0.5758017558
 H         -0.4556131083       -2.3257373513        1.0993453307
 H         -1.3914940713       -3.8305784254        1.2518276193
 O         -2.3211400779       -2.3633039621        0.2246522614
 H         -2.1302823232       -1.8281150989       -0.5572111284
 C         -2.0443368026        2.8219740005       -0.7870818032
 H         -2.3460428902        3.3045188008       -1.7361074873
 C         -3.9629992789        1.4273994408       -0.6634175481
 H         -4.3979261315        2.0162211738       -1.4873171393
 O         -2.5465100745        1.5065517975       -0.7365399787
 C         -2.5187604617        3.7049989302        0.3788530253
 H         -1.9610584625        3.4096926373        1.2830443400
 O         -2.2226009833        5.0328098354        0.0395137793
 H         -2.6297488007        5.6000195670        0.7079181564
 C         -4.0255524449        3.5378589307        0.6648994255
 H         -4.5923706568        4.0710256482       -0.1071430513
 O         -4.3430927905        4.1414272472        1.8913076741
 H         -4.1781362196        3.4807435424        2.5810973884
 C         -4.4015919638        2.0447410589        0.6712762967
 H         -5.4846795234        1.9479722706        0.8037850749
 O         -3.8064513180        1.4083998100        1.7713251658
 H         -2.9101723043        1.1245979557        1.5307052101
 C         -4.3711468545       -0.0325514053       -0.7839355878
 H         -3.9678005695       -0.4552073787       -1.6995825265
 H         -5.4543490315       -0.1016876575       -0.8094950046
 H         -4.0003513209       -0.6007458950        0.0644869385
 H          3.5852788003       -2.6610276444        2.2111345732
  72
  -125.09128103000000        2.9513639093987977E-005 !
 C          2.1797568112        2.3201628718        0.3909877814
 H          1.3665921065        3.0553510216        0.4524355145
 O          3.3482826352        3.0001152265        0.6424141761
 H          4.0643949412        2.3481535451        0.6677731675
 C          1.0948857459        1.1433510918       -1.3831025973
 H          1.4289610272        0.6553479080       -2.3083356932
 O          2.2602136008        1.7797155346       -0.9226686675
 C          1.9730432355        1.1588763180        1.3790220095
 H          1.9165170277        1.5550081431        2.3965352653
 N          3.1606334988        0.3122239972        1.2641788904
 H          3.2591978315       -0.0192197992        0.3086806630
 C          3.3981961686       -0.7261739727        2.1516201037
 O          3.3444939912       -1.9977260218        1.5596555665
 C          3.0745038703       -0.5951553667        3.5989902308
 H          3.6214473483       -1.3428994265        4.1738686935
 H          2.0057130368       -0.7245238482        3.8177001842
 H          3.3735488647        0.3902346223        3.9469157636
 C          0.6598782567        0.4082762618        1.0667491183
 H          0.6633902295       -0.5285476031        1.6378200017
 O         -0.4655476156        1.1158230556        1.5013236547
 H         -0.5923745257        1.8497869156        0.8755519973
 C          0.5722962520        0.0387824415       -0.4307823085
 H         -0.4821652090       -0.1548216859       -0.6724562300
 O          1.3264904524       -1.1608435491       -0.5844487613
 C          0.0020984572        2.1447949771       -1.8120452120
 H         -0.7252161243        1.6196138230       -2.4357428423
 H          0.4822108253        2.9401589794       -2.3933727796
 O         -0.6608294701        2.7430120675       -0.7011410616
 C          1.0266817789       -1.9494157759       -1.7078617636
 H          0.9676621260       -1.3404042047       -2.6213832634
 C         -0.4332671213       -3.5898106014       -0.6667368894
 H         -1.1432534597       -4.2589603506       -1.1684467313
 O         -0.2320466103       -2.5451256570       -1.6275206556
 C          2.1950334248       -2.9375592102       -1.8821305330
 H          2.9851266207       -2.6441871899       -1.1713610077
 O          2.6697890829       -2.8213434247       -3.1985430749
 H          3.2881155871       -3.5478239052       -3.3517489894
 C          1.7575667042       -4.3803793829       -1.5717213397
 H          1.2164437169       -4.7785969389       -2.4369864820
 O          2.8784097358       -5.2025219847       -1.3768785883
 H          3.1685789262       -5.0799529687       -0.4617212948
 C          0.8426330001       -4.3809580117       -0.3368776269
 H          0.5594096380       -5.4137015028       -0.1028815187
 O          1.5358731578       -3.9434969764        0.8005563543
 H          1.8157899556       -3.0157242974        0.7039893902
 C         -1.1145264102       -3.0258052400        0.5888675590
 H         -0.4340410054       -2.3375475137        1.1053794762
 H         -1.3680481866       -3.8427579954        1.2670355189
 O         -2.3088145534       -2.3748752931        0.2510645531
 H         -2.1262990464       -1.8392445121       -0.5325132252
 C         -2.0480948009        2.8255376165       -0.7929722515
 H         -2.3585457294        3.3002787513       -1.7430618992
 C         -3.9588711413        1.4226468883       -0.6350747276
 H         -4.4090640597        2.0059105467       -1.4546741451
 O         -2.5441027682        1.5084681524       -0.7299831411
 C         -2.5150468107        3.7165205249        0.3702843117
 H         -1.9409643141        3.4366401078        1.2691195705
 O         -2.2362949806        5.0430367608        0.0115614267
 H         -2.6354409956        5.6142833034        0.6813467519
 C         -4.0154691182        3.5393078820        0.6828088928
 H         -4.5994379678        4.0637160131       -0.0825037002
 O         -4.3166677635        4.1471151721        1.9112666095
 H         -4.1358249619        3.4909775627        2.6015110336
 C         -4.3803424021        2.0435509721        0.7033892259
 H         -5.4604935281        1.9397524482        0.8534459894
 O         -3.7638832553        1.4173520943        1.7973139091
 H         -2.8680577629        1.1401011311        1.5465580461
 C         -4.3615309909       -0.0397729687       -0.7433550776
 H         -3.9646438778       -0.4659881184       -1.6602325267
 H         -5.4446793561       -0.1137970759       -0.7587262753
 H         -3.9805128227       -0.6012172407        0.1051746780
 H          3.5717279991       -2.6574463610        2.2228183153
  72
  -125.09126268000000        2.8946075204870926E-005 !
 C          2.7830219550        2.0393474981       -0.6161236716
 H          2.2160741996        2.9406003138       -0.8945089437
 O          4.0720541312        2.4788055136       -0.3265854972
 H          4.6673099197        1.7261367093       -0.4351401328
 C          1.8782914942        0.1911011398       -1.8901866004
 H          2.2830854530       -0.4597605064       -2.6731496691
 O          2.8924726438        1.1570878435       -1.7074992738
 C          2.1207625434        1.3676762068        0.6142290801
 H          1.0329157402        1.4755658710        0.5422486944
 N          2.5739359409        1.9638646803        1.8452114419
 H          3.3712288174        2.5760126674        1.7423929590
 C          1.6095319015        2.3676372253        2.7802012492
 O          0.6611713705        1.3651676179        3.0165066738
 C          2.0810073233        3.1545875817        3.9590628356
 H          2.7238647496        2.5654332964        4.6240271736
 H          1.2214955092        3.4867616732        4.5376058747
 H          2.6422283592        4.0250542517        3.6260254514
 C          2.4086245841       -0.1423264474        0.5772854233
 H          3.4812129128       -0.3442727783        0.4544457915
 O          1.9825376375       -0.7953854951        1.7466232453
 H          1.4949859463       -0.1474323535        2.2931957648
 C          1.6506913806       -0.6893028666       -0.6419975403
 H          0.5859985426       -0.6889896378       -0.3985287143
 O          2.0955925486       -2.0164991359       -0.9118505039
 C          0.5725012776        0.7925959587       -2.4458641471
 H         -0.1602292252       -0.0083353463       -2.5739373199
 H          0.7935564476        1.2492136930       -3.4172920904
 O          0.0536356841        1.8376645002       -1.6274694739
 C          1.1034089375       -2.9741123938       -0.9969445384
 H          1.6177805970       -3.8882418675       -1.3418352958
 C         -0.8705068618       -3.4996759059       -2.2115619781
 H         -0.4287660584       -4.3707887640       -2.7263123512
 O          0.1379822184       -2.5570640368       -1.9349870235
 C          0.4016837331       -3.2599291834        0.3468584496
 H         -0.1940703898       -2.3757868055        0.6169039758
 O          1.2956348942       -3.5752646478        1.3766634040
 H          1.7938811476       -2.7630652051        1.5811582783
 C         -0.5500427607       -4.4360778206        0.1229074491
 H          0.0287448332       -5.3113595666       -0.2083911300
 O         -1.2601173957       -4.7397772876        1.3012184158
 H         -0.6131312212       -4.7254816009        2.0191345257
 C         -1.5772730614       -4.0435997256       -0.9515216759
 H         -2.1454068051       -4.9410709875       -1.2451661881
 O         -2.4684323452       -3.0952132774       -0.4098150402
 H         -2.6943093860       -3.4271633922        0.4729101082
 C         -1.8544332786       -2.7914590906       -3.1614967725
 H         -2.7048119093       -3.4641303844       -3.3476103770
 H         -1.3475190909       -2.5828418329       -4.1059620663
 O         -2.2851800430       -1.5580171827       -2.6651177049
 H         -2.5512569391       -1.7096497633       -1.7459208798
 C         -1.1865915316        1.6614386647       -1.0331640270
 H         -1.9324687694        1.2841390017       -1.7623528624
 C         -2.3277624214        0.6096071956        0.7428447537
 H         -3.1004342842        0.2811493785        0.0261905151
 O         -1.1029837117        0.7640776781        0.0482267313
 C         -1.5893902065        3.0614653165       -0.5364197685
 H         -0.7987207544        3.4014691612        0.1525642860
 O         -1.7321873401        3.9632942942       -1.6029506029
 H         -0.9558421861        3.8680135608       -2.1684011521
 C         -2.9172536619        2.9926593616        0.2188024230
 H         -3.7097598535        2.7037413180       -0.4878166311
 O         -3.2192629349        4.2302113998        0.8176195911
 H         -3.1179711886        4.9082591573        0.1385008402
 C         -2.8061845095        1.9466618373        1.3354183869
 H         -3.8020757992        1.7989853891        1.7808564199
 O         -1.9122890581        2.3971330655        2.3253920694
 H         -2.1171503263        3.3328206417        2.4670817768
 C         -2.1323115115       -0.4480471740        1.8192014003
 H         -1.3014031540       -0.1752431858        2.4615130831
 H         -1.9238685109       -1.4025140017        1.3489138081
 H         -3.0358653352       -0.5339633241        2.4149925478
 H         -0.2318062994        1.7093206032        2.8406889475
  72
  -125.09125874999999        2.8825946958122505E-005 !
 C          2.8191562350        2.0302861769       -0.2948969431
 H          3.6338412255        2.7216358567       -0.5490323436
 O          2.6358885112        1.2324897857       -1.4273026695
 H          1.7864996444        0.7531202425       -1.3461542870
 C          0.5358017157        2.1835476635        0.4071383533
 H         -0.1839876852        2.2379862383       -0.4194917212
 O          1.7271157973        2.8501014064       -0.0049842792
 C          3.1871521798        1.2367996324        0.9875746586
 H          3.2721244091        2.0030574523        1.7712774969
 N          4.4364994218        0.5070255532        0.9729444252
 H          5.2503949266        1.1174129746        0.9570652118
 C          4.5840508940       -0.7332528067        0.3512742759
 O          4.1882491979       -0.9294474659       -0.9683911752
 C          5.7795478248       -1.5315715248        0.7535485052
 H          5.7763392392       -1.7014108389        1.8281031665
 H          6.7169674737       -1.0221971211        0.4972681803
 H          5.7663657336       -2.4858537229        0.2343126385
 C          2.0326417199        0.2939332566        1.3723957495
 H          2.2913453434       -0.7114960807        1.0046441345
 O          1.8513335714        0.2595194352        2.7696642769
 H          2.6894471713        0.0094302374        3.1751936520
 C          0.6833896361        0.6932528977        0.7460313633
 H         -0.0933583712        0.4496541735        1.4826945979
 O          0.4114192212       -0.0097150783       -0.4675161079
 C         -0.0505056288        2.9343456629        1.6185181000
 H         -0.1826240559        3.9896456302        1.3527044814
 H          0.6355490032        2.8508396463        2.4641294553
 O         -1.2598691891        2.3626300269        2.0671201799
 C          0.1406752650       -1.3659627889       -0.3638632144
 H         -0.3795089912       -1.5900597370        0.5878883607
 C          1.2791027528       -3.4566556509       -0.4291035018
 H          0.7693468078       -3.8106329187        0.4827648654
 O          1.3716545695       -2.0473764846       -0.4109898218
 C         -0.7667062347       -1.7633659077       -1.5346890290
 H         -0.2963641968       -1.4068300314       -2.4640051664
 O         -2.0225536816       -1.1588697273       -1.3548872446
 H         -2.6609884800       -1.6753035346       -1.8693979204
 C         -0.9159030620       -3.2925621661       -1.6050750645
 H         -1.4679942800       -3.6387908195       -0.7230820800
 O         -1.6868931078       -3.6434379894       -2.7222119763
 H         -1.0944232255       -3.6230443912       -3.4873353608
 C          0.4778898203       -3.9343431059       -1.6498402229
 H          0.3743484288       -5.0318315874       -1.5960440249
 O          1.0640148814       -3.5651959387       -2.8707420515
 H          2.0327899221       -3.5711734282       -2.7433717178
 C          2.7249962825       -3.9870911286       -0.4412329988
 H          2.6995768855       -5.0796977260       -0.4827540002
 H          3.2175943147       -3.6760707998        0.4871062306
 O          3.4438793413       -3.5493562540       -1.5605967263
 H          3.6717137779       -2.6044249963       -1.4314480781
 C         -2.4087790529        2.6713932648        1.3580280136
 H         -2.5691607072        3.7748893322        1.3268370541
 C         -3.4368431193        2.4191660819       -0.7697209046
 H         -3.7025533486        3.4899839097       -0.7434475267
 O         -2.2936981971        2.1967592973        0.0365543838
 C         -3.5892407001        1.9950992984        2.0978252071
 H         -3.3293347819        0.9400266086        2.2334714658
 O         -3.7539562022        2.5041895700        3.3875433398
 H         -4.1668598117        3.3748109647        3.3424251615
 C         -4.8754505304        2.1134648599        1.2526990076
 H         -5.1878683292        3.1663365867        1.2248582278
 O         -5.9402954022        1.4126511181        1.8270371560
 H         -5.7902467148        0.4728000996        1.6532841149
 C         -4.6042478945        1.6147838282       -0.1848318123
 H         -5.5130804861        1.7627243087       -0.7817969497
 O         -4.3427355575        0.2342762226       -0.1656744773
 H         -3.3843010366        0.0945586871       -0.2126871712
 C         -3.0772170340        1.9967225775       -2.1874725456
 H         -2.2870856515        2.6355293779       -2.5707682525
 H         -3.9493816110        2.0759291336       -2.8292151370
 H         -2.7201478135        0.9707315373       -2.1785826164
 H          3.6530714199       -0.1681748972       -1.2751649010
  72
  -125.09124498000000        2.8408959609625085E-005 !
 C          2.7688258826        2.0756836288       -0.5638195974
 H          2.2040461180        2.9842952723       -0.8217953590
 O          4.0542571349        2.5080657854       -0.2494490499
 H          4.6515362913        1.7582793396       -0.3676605152
 C          1.8809353471        0.2592643982       -1.8955526313
 H          2.2967843490       -0.3695314464       -2.6907752505
 O          2.8891337338        1.2242654958       -1.6785242999
 C          2.0966756002        1.3675690380        0.6397307456
 H          1.0090546691        1.4709580962        0.5578700905
 N          2.5320952759        1.9317673404        1.8916861776
 H          3.3254587441        2.5527110420        1.8160846064
 C          1.5557060125        2.2961125387        2.8306106513
 O          0.6125430898        1.2793829801        3.0232540119
 C          2.0110516051        3.0435447286        4.0412653938
 H          1.1435961866        3.3525650921        4.6208710882
 H          2.5726834801        3.9270024855        3.7452429423
 H          2.6482117496        2.4334954899        4.6929346613
 C          2.3950581232       -0.1391933565        0.5636281572
 H          3.4693903134       -0.3300094088        0.4378144083
 O          1.9734400679       -0.8252349372        1.7151552636
 H          1.4673602582       -0.1996961232        2.2712036456
 C          1.6455625979       -0.6569448773       -0.6739925924
 H          0.5789134647       -0.6704408382       -0.4387175109
 O          2.0989740464       -1.9724954583       -0.9842676934
 C          0.5788982906        0.8703172569       -2.4499411223
 H         -0.1555923433        0.0724696151       -2.5863779139
 H          0.8039029290        1.3352651018       -3.4165533532
 O          0.0612415470        1.9085355529       -1.6226565964
 C          1.1204711396       -2.9448689071       -1.0607795794
 H          1.6396443648       -3.8393577491       -1.4477866500
 C         -0.8746000076       -3.4859301365       -2.2296888133
 H         -0.4236670770       -4.3280176243       -2.7834152524
 O          0.1153704784       -2.5234253261       -1.9543927430
 C          0.4680691324       -3.2829724574        0.2960816700
 H         -0.1404720520       -2.4219228652        0.6092604442
 O          1.4000349828       -3.6052202826        1.2894673897
 H          1.8738143556       -2.7833360314        1.5120614365
 C         -0.4574341080       -4.4791501477        0.0662569185
 H          0.1366414404       -5.3273682970       -0.3060441627
 O         -1.1229605101       -4.8366646799        1.2552238765
 H         -0.4561242341       -4.8187602331        1.9548071396
 C         -1.5266825362       -4.0886385656       -0.9668234056
 H         -2.0747281408       -4.9949026967       -1.2714155187
 O         -2.4309899807       -3.1865395767       -0.3708552726
 H         -2.6182071604       -3.5519612425        0.5079484565
 C         -1.9072714097       -2.7813109945       -3.1293563663
 H         -2.7421503776       -3.4750027596       -3.3090488599
 H         -1.4357385565       -2.5321327678       -4.0823543194
 O         -2.3600089027       -1.5755888119       -2.5873062914
 H         -2.5948247220       -1.7586392174       -1.6654571029
 C         -1.1847033150        1.7281794273       -1.0418445829
 H         -1.9309776864        1.3860146588       -1.7881721310
 C         -2.3552258557        0.6207772135        0.6757063092
 H         -3.1195643108        0.3303319290       -0.0657265397
 O         -1.1189458804        0.7926012979        0.0062802882
 C         -1.5761785291        3.1131326238       -0.4967398836
 H         -0.7896144078        3.4175083194        0.2133088389
 O         -1.6977959837        4.0571052224       -1.5289266996
 H         -0.9164270057        3.9755871452       -2.0895222278
 C         -2.9134957131        3.0294428259        0.2408916054
 H         -3.7007062803        2.7791562569       -0.4861352654
 O         -3.2083182895        4.2452231980        0.8861629608
 H         -3.0923177245        4.9488965828        0.2362092708
 C         -2.8293980447        1.9374867504        1.3155144951
 H         -3.8332485923        1.7824578394        1.7400260268
 O         -1.9460464052        2.3381926099        2.3358422974
 H         -2.1425728945        3.2699884119        2.5111245595
 C         -2.1831175864       -0.4848152028        1.7063657825
 H         -1.9651323222       -1.4151779934        1.1938072135
 H         -3.0994780666       -0.5978406409        2.2775620305
 H         -1.3663894328       -0.2426603178        2.3785465605
 H         -0.2807029704        1.6220462144        2.8446783501
  72
  -125.09122855000000        2.7919306349730992E-005 !
 C          2.9856508578        2.5313614584        0.7574871400
 H          3.6844738014        3.2265956843        1.2442173002
 O          2.6151210771        2.9870341524       -0.5063150283
 H          2.2868429441        3.8908550574       -0.4346567897
 C          0.8604168220        1.5851839056        1.2107430679
 H          0.4229536535        1.9285586072        0.2632995589
 O          1.8858403946        2.4668762669        1.6365532759
 C          3.6541571033        1.1586087631        0.6059628206
 H          3.9665816362        0.8147206773        1.5951282586
 N          4.8439018819        1.2800203379       -0.2262522454
 H          4.5808024867        1.4702645681       -1.1871800217
 C          5.8591320043        0.3276851646       -0.1453410716
 O          5.9156698644       -0.6633638762       -1.0986882830
 C          6.4992709684        0.0526515019        1.1710355595
 H          6.5692280350        0.9716008260        1.7460911819
 H          7.4970305969       -0.3483660754        1.0053655971
 H          5.9425091214       -0.6922919454        1.7540147287
 C          2.6057640079        0.1847316021        0.0411901976
 H          2.2758106133        0.5587152017       -0.9427641728
 O          3.1880340787       -1.0902100734       -0.0974485263
 H          2.4732551528       -1.7531999946       -0.1200783851
 C          1.3877582121        0.1600035908        0.9785972447
 H          1.6881818177       -0.2886432226        1.9371926744
 O          0.3161206333       -0.5757336767        0.4143713829
 C         -0.2059420824        1.6361192734        2.3144840906
 H         -0.3878460532        2.6936001705        2.5490397019
 H          0.1762542848        1.1381874645        3.2084775600
 O         -1.4201197225        0.9857451207        2.0135358384
 C          0.2146522785       -1.9429060578        0.7182230107
 H          0.6913134726       -2.1663120512        1.6839945328
 C          0.3662570403       -2.8819388469       -1.5244242998
 H          0.3656114489       -3.9648076390       -1.7022976850
 O          0.9136682820       -2.7295971232       -0.2025216646
 C         -1.2778537589       -2.2781320891        0.8561860390
 H         -1.7683302805       -1.3392465067        1.1553050733
 O         -1.3960722414       -3.2334553754        1.8830140815
 H         -2.3208101127       -3.5046190991        1.9339393528
 C         -1.9145955495       -2.7730637653       -0.4620180371
 H         -1.9613959098       -3.8694898727       -0.4242101185
 O         -3.2290949620       -2.3054024211       -0.5838016936
 H         -3.2069471792       -1.4364925820       -1.0297015192
 C         -1.0688905757       -2.3549720733       -1.6752644897
 H         -1.4981860784       -2.8171859748       -2.5724669320
 O         -1.1589117259       -0.9786494091       -1.9109329518
 H         -0.8492223688       -0.4764753717       -1.1374747545
 C          1.2898943948       -2.2196408014       -2.5627138656
 H          1.4009897526       -1.1547341578       -2.3220276097
 H          0.8178177446       -2.2994158084       -3.5441092549
 O          2.5323446149       -2.8541472094       -2.6746555855
 H          2.9957465907       -2.8030397999       -1.8291830686
 C         -2.2704126850        1.6433789305        1.1314814055
 H         -2.3250597544        2.7260143362        1.3892155063
 C         -2.6557939644        2.1564020544       -1.1324181060
 H         -2.7106926187        3.2278781920       -0.8658126555
 O         -1.8226520059        1.5027958263       -0.1891335336
 C         -3.6675821923        1.0223454062        1.3038431037
 H         -3.6050943537       -0.0448144619        1.0429640417
 O         -4.1427413509        1.1866893841        2.6164807636
 H         -3.4566382356        0.8731753409        3.2181211959
 C         -4.6422841644        1.7108607653        0.3452927678
 H         -4.7335265125        2.7687576959        0.6387526348
 O         -5.9020452403        1.0884524692        0.3670739070
 H         -6.1553670633        0.9803979019        1.2919074341
 C         -4.0927904750        1.6088124007       -1.0864844084
 H         -4.7228036688        2.2257672682       -1.7465653445
 O         -4.1194254297        0.2730300992       -1.5159280142
 H         -4.9954100188       -0.0711476561       -1.2876385277
 C         -2.0290229431        1.9821664422       -2.5068582284
 H         -1.0155465675        2.3717653995       -2.4986325654
 H         -2.6163433813        2.5167561934       -3.2467998774
 H         -2.0014197566        0.9257903999       -2.7535165423
 H          5.0190555244       -0.9649767157       -1.3139022476
  72
  -125.09122503000000        2.7815504680398150E-005 !
 C          2.9826337015        2.5306153285        0.7623686766
 H          3.6824566184        3.2244774187        1.2496216748
 O          2.6078435462        2.9904582174       -0.4986473736
 H          2.2801489692        3.8942443666       -0.4229911431
 C          0.8594493655        1.5816936301        1.2169998510
 H          0.4222431676        1.9273672977        0.2703261795
 O          1.8852984494        2.4620671794        1.6443712322
 C          3.6517952354        1.1588553134        0.6040124307
 H          3.9688364497        0.8123880705        1.5908270394
 N          4.8378476467        1.2840068184       -0.2332036360
 H          4.5698657967        1.4718634553       -1.1932616471
 C          5.8568360216        0.3355565107       -0.1551330208
 O          5.9092102084       -0.6613560017       -1.1025441924
 C          6.5094882670        0.0715508646        1.1573438433
 H          7.5081108319       -0.3248037901        0.9857204111
 H          5.9618495790       -0.6729818136        1.7494504668
 H          6.5790293808        0.9942840871        1.7262893499
 C          2.6026451472        0.1850147595        0.0405603635
 H          2.2692287401        0.5602850196       -0.9417252588
 O          3.1857104151       -1.0891313320       -0.1021585873
 H          2.4713930354       -1.7525064262       -0.1258520789
 C          1.3872874176        0.1573250496        0.9812759368
 H          1.6906346903       -0.2922398791        1.9385828191
 O          0.3148337988       -0.5784231726        0.4185851442
 C         -0.2074315204        1.6303295267        2.3203253536
 H         -0.3892311347        2.6873782015        2.5576772212
 H          0.1736747156        1.1292728929        3.2131434421
 O         -1.4217049742        0.9814650925        2.0161727969
 C          0.2143261475       -1.9459292977        0.7213481608
 H          0.6925107353       -2.1698771511        1.6862317617
 C          0.3616828117       -2.8865141471       -1.5208686702
 H          0.3553385697       -3.9700023002       -1.6948646823
 O          0.9126617507       -2.7313734717       -0.2008546432
 C         -1.2777565989       -2.2816506203        0.8613486144
 H         -1.7668692674       -1.3446987257        1.1682574146
 O         -1.3930637190       -3.2437098429        1.8820514500
 H         -2.3181567410       -3.5126655620        1.9364960876
 C         -1.9187883802       -2.7680391403       -0.4580598331
 H         -1.9737804400       -3.8642146452       -0.4230586459
 O         -3.2294819888       -2.2897004721       -0.5777644897
 H         -3.2016646681       -1.4230975901       -1.0280388124
 C         -1.0711247548       -2.3531993103       -1.6710688610
 H         -1.5024266458       -2.8139286186       -2.5680618927
 O         -1.1557073796       -0.9766711162       -1.9075143786
 H         -0.8450096322       -0.4755304643       -1.1337327352
 C          1.2870208506       -2.2323353810       -2.5626212999
 H          1.4037290557       -1.1671826127       -2.3254550138
 H          0.8135539316       -2.3133267154       -3.5432471152
 O          2.5260767581       -2.8735194316       -2.6734086727
 H          2.9897817398       -2.8231770392       -1.8280133350
 C         -2.2695677062        1.6412064993        1.1332801566
 H         -2.3250680581        2.7231832921        1.3937294866
 C         -2.6472161333        2.1615244077       -1.1302298662
 H         -2.7014294210        3.2323566822       -0.8608644630
 O         -1.8177179130        1.5041844187       -0.1863421012
 C         -3.6672214414        1.0194796963        1.2992457604
 H         -3.6039942783       -0.0467784161        1.0349562084
 O         -4.1468905648        1.1791495273        2.6108501695
 H         -3.4624858235        0.8641390811        3.2137217148
 C         -4.6389789503        1.7115291684        0.3401930942
 H         -4.7314389912        2.7682295805        0.6375265655
 O         -5.8987024469        1.0887193796        0.3555052114
 H         -6.1544930228        0.9759809259        1.2789881302
 C         -4.0851211158        1.6157369771       -1.0903858102
 H         -4.7125745417        2.2366153652       -1.7492634362
 O         -4.1124777779        0.2821869333       -1.5263016772
 H         -4.9890877046       -0.0622485695       -1.3008272031
 C         -2.0162151022        1.9903049643       -2.5030964918
 H         -1.0025950443        2.3793164895       -2.4906864691
 H         -2.6009279414        2.5266869060       -3.2438074267
 H         -1.9883832883        0.9344962630       -2.7519196945
 H          5.0113468007       -0.9647014524       -1.3109084018
  72
  -125.09122103000000        2.7698016611962702E-005 !
 C          2.9810659520        2.5311395324        0.7669701151
 H          3.6810648627        3.2242141798        1.2551138396
 O          2.6050553600        2.9937272630       -0.4926884494
 H          2.2770019275        3.8970285679       -0.4146715158
 C          0.8585422278        1.5808101342        1.2209275233
 H          0.4215743058        1.9276111526        0.2744646980
 O          1.8844006258        2.4606621625        1.6495969338
 C          3.6505675826        1.1598796866        0.6049613016
 H          3.9698750726        0.8119746371        1.5905066991
 N          4.8352213900        1.2873114644       -0.2337722630
 H          4.5655031719        1.4792863636       -1.1924435836
 C          5.8535426472        0.3377299413       -0.1618186560
 O          5.9045983014       -0.6528180898       -1.1158353236
 C          6.5058989053        0.0647077117        1.1488332048
 H          5.9572302424       -0.6828980666        1.7360067484
 H          6.5769604226        0.9837692784        1.7235987227
 H          7.5037581276       -0.3322426889        0.9742625996
 C          2.6010720710        0.1860362659        0.0417460620
 H          2.2662360758        0.5617322244       -0.9399138675
 O          3.1848982478       -1.0873950881       -0.1030035172
 H          2.4709867724       -1.7511623506       -0.1256879236
 C          1.3866702395        0.1568106222        0.9835996856
 H          1.6913489395       -0.2934265001        1.9401289534
 O          0.3143186439       -0.5791504710        0.4210888638
 C         -0.2090433844        1.6278352978        2.3236083336
 H         -0.3907768456        2.6845559155        2.5622767655
 H          0.1711991780        1.1251577237        3.2159830517
 O         -1.4233188316        0.9800718223        2.0172443833
 C          0.2145887319       -1.9467743509        0.7233836145
 H          0.6924721379       -2.1706115393        1.6883824182
 C          0.3623136166       -2.8892377698       -1.5182368211
 H          0.3539914522       -3.9730443175       -1.6902446021
 O          0.9136693116       -2.7316162662       -0.1986382439
 C         -1.2773314404       -2.2833482935        0.8628354649
 H         -1.7667297711       -1.3472630526        1.1718500270
 O         -1.3922646741       -3.2477000598        1.8814630821
 H         -2.3174345289       -3.5164309538        1.9361890290
 C         -1.9187450590       -2.7671403092       -0.4574741492
 H         -1.9762050899       -3.8632641708       -0.4232723934
 O         -3.2283178819       -2.2858154375       -0.5774891126
 H         -3.1988659668       -1.4194826465       -1.0282503728
 C         -1.0694292629       -2.3536228558       -1.6698137714
 H         -1.5006684137       -2.8137943633       -2.5671443327
 O         -1.1518004983       -0.9771105031       -1.9065393798
 H         -0.8416770520       -0.4763617780       -1.1322425799
 C          1.2890065700       -2.2386166255       -2.5610405943
 H          1.4068459919       -1.1730665083       -2.3265303866
 H          0.8163374083       -2.3213804223       -3.5419310438
 O          2.5273745742       -2.8815267278       -2.6693158320
 H          2.9902558844       -2.8302142486       -1.8236225419
 C         -2.2694319357        1.6408224603        1.1334149666
 H         -2.3245303328        2.7227055255        1.3942407860
 C         -2.6436638238        2.1622362814       -1.1304886720
 H         -2.6968492916        3.2330367694       -0.8609226070
 O         -1.8161780034        1.5037402272       -0.1857171903
 C         -3.6677736169        1.0202656592        1.2972643753
 H         -3.6050918303       -0.0459556022        1.0326700838
 O         -4.1489150011        1.1799928977        2.6083503596
 H         -3.4656170403        0.8640935489        3.2119477531
 C         -4.6377143005        1.7136335525        0.3373310886
 H         -4.7293983275        2.7703006325        0.6348541477
 O         -5.8980286477        1.0919974296        0.3508116419
 H         -6.1550848898        0.9791899274        1.2739057787
 C         -4.0821531830        1.6179772404       -1.0925268743
 H         -4.7079120444        2.2400090782       -1.7518943695
 O         -4.1101093712        0.2847041167       -1.5293246901
 H         -4.9871184609       -0.0593033577       -1.3048137691
 C         -2.0110008196        1.9906625013       -2.5025050669
 H         -0.9970101615        2.3786077895       -2.4890813200
 H         -2.5942822603        2.5276717976       -3.2437573726
 H         -1.9840693462        0.9349057858       -2.7515547422
 H          5.0067334708       -0.9569719559       -1.3230916600
  72
  -125.09120296000000        2.7173418308443777E-005 !
 C          2.9262660302        2.1521766055       -0.3409228297
 H          2.8410758185        3.2302934403       -0.1198511754
 O          4.0787342775        1.8914156313       -1.0820110232
 H          4.0269581021        2.3629897905       -1.9219844036
 C          1.6053251995        0.4947547725       -1.4355284511
 H          2.4153685032        0.2160602435       -2.1244070342
 O          1.7548573801        1.8601502471       -1.0555653737
 C          2.9993416114        1.3640395604        0.9756266970
 H          2.1378652726        1.6483152603        1.5947700253
 N          4.2170023609        1.6356432008        1.6937843515
 H          4.9551286152        2.0273281070        1.1313356945
 C          4.1393001585        2.0982461542        3.0228347120
 O          3.3965224405        1.2855044508        3.8582863942
 C          5.3924635700        2.6688885920        3.6093950334
 H          5.7230924501        3.5306236794        3.0325807140
 H          6.2094717654        1.9370185724        3.6352786473
 H          5.1876233225        2.9808313021        4.6296548427
 C          2.8776596644       -0.1416850444        0.6816865522
 H          3.7870383464       -0.4829849726        0.1659895024
 O          2.7399533167       -0.7983522516        1.9184235454
 H          2.3632681718       -1.6814980097        1.7694664932
 C          1.6682436127       -0.4410801860       -0.2173666743
 H          0.7617789524       -0.2951120688        0.3750831459
 O          1.8393045299       -1.7985342257       -0.6273397824
 C          0.2635938968        0.3819105648       -2.1795749238
 H          0.2629855099       -0.5290271618       -2.7762852735
 H          0.1374677639        1.2617507129       -2.8177758067
 O         -0.8568473971        0.2455753430       -1.3196202092
 C          0.7881833364       -2.6980998403       -0.5909159148
 H          1.2808360294       -3.6846804706       -0.6713177001
 C         -1.0400840862       -3.4900440577       -1.8504676392
 H         -0.5923651618       -4.4955159816       -1.8559656637
 O         -0.0386209252       -2.5032402280       -1.7214202896
 C         -0.0256899881       -2.6876325131        0.7150651910
 H         -0.4381121853       -1.6860901536        0.9032281949
 O          0.8586312087       -3.0459947442        1.7545669474
 H          0.3234310863       -3.2178826949        2.5408176443
 C         -1.2204432205       -3.6547920422        0.6305052913
 H         -0.8615937782       -4.6894883346        0.6465805397
 O         -2.0390093353       -3.4909634771        1.7607943478
 H         -2.6198181229       -2.7382416466        1.5750378211
 C         -2.0047433758       -3.3724180538       -0.6647098306
 H         -2.8257140701       -4.0885321229       -0.7694236783
 O         -2.5813522088       -2.0916852006       -0.6029811998
 H         -1.9102591698       -1.4420996969       -0.8804829154
 C         -1.7541749831       -3.2699552486       -3.1837722707
 H         -0.9953910928       -3.1332860354       -3.9653579414
 H         -2.3639610510       -2.3602317606       -3.1174511919
 O         -2.5481092481       -4.4051576952       -3.4324701667
 H         -3.0543059947       -4.2613792683       -4.2388934584
 C         -1.2501004248        1.4067139791       -0.6661147785
 H         -0.3799390125        1.9629297581       -0.2764563319
 C         -2.3597672199        3.4521558889       -1.0277895591
 H         -1.4945017678        3.9422628810       -0.5536920824
 O         -1.9481393446        2.2171524131       -1.5889950299
 C         -2.1565531124        1.0154555710        0.5107040030
 H         -2.9601877020        0.3637636726        0.1309262446
 O         -1.3880593012        0.3144233728        1.4570120486
 H         -1.8573486679        0.3643502909        2.3018593430
 C         -2.7775220633        2.2747982067        1.1435912711
 H         -1.9910088370        2.8334081967        1.6645067081
 O         -3.7206142065        1.9047714495        2.1156267574
 H         -4.5594502149        1.7500218917        1.6566957938
 C         -3.4160586247        3.1489653489        0.0479782566
 H         -3.8038214746        4.0705549743        0.4934754406
 O         -4.5186140648        2.4734982585       -0.5065320087
 H         -4.1765235065        1.8914677992       -1.2009385068
 C         -2.9118384458        4.3246365713       -2.1458382045
 H         -3.1243266393        5.3184430221       -1.7635839091
 H         -3.8270062378        3.8924594297       -2.5410728271
 H         -2.1816764694        4.3933955074       -2.9462724151
 H          3.1406122517        0.4861412189        3.3681835282
  72
  -125.09113678000000        2.5335533404907866E-005 !
 C          2.8984657197        2.3095987045        0.0783337524
 H          2.8714111758        3.3095181446        0.5403515983
 O          4.0893563047        2.1198822899       -0.6252536435
 H          4.1484086809        2.7813296363       -1.3247754083
 C          1.5514923938        1.0453591438       -1.4207250270
 H          2.3807626705        0.8489371509       -2.1169163814
 O          1.7735831722        2.2801877633       -0.7514185107
 C          2.8093450901        1.2328495765        1.1665369047
 H          1.9029619613        1.4080882893        1.7589798730
 N          3.9363165064        1.3569909022        2.0521286546
 H          4.8171156154        1.2710119999        1.5603828779
 C          3.9199880750        0.6203343428        3.2591558985
 O          2.6506687858        0.5015708703        3.8205858129
 C          5.0650896116        0.8429713962        4.1892668286
 H          5.0981585004        0.0465814309        4.9316703349
 H          4.9936291768        1.8023024259        4.7214780783
 H          5.9990481212        0.8366593938        3.6348713841
 C          2.6919893127       -0.1444905773        0.4886471274
 H          3.5876813470       -0.3346715613       -0.1158006640
 O          2.6366762040       -1.1779890153        1.4391731967
 H          2.2128245760       -0.8510434884        2.2460672199
 C          1.4740876835       -0.1627984082       -0.4650090835
 H          0.5343584235       -0.1396609248        0.0959905801
 O          1.5616297002       -1.3361363181       -1.2722596068
 C          0.2631030881        1.2035707700       -2.2397545415
 H          0.1388395926        0.3018999353       -2.8420719612
 H          0.3594638918        2.0828004365       -2.8879150548
 O         -0.8976650322        1.2966263615       -1.4550950415
 C          0.5601746397       -2.2959923819       -1.2080864016
 H          0.9238957123       -3.0858188075       -1.8920725501
 C         -1.6235513074       -2.7886490641       -1.9038913778
 H         -1.1923248626       -3.5445557746       -2.5822522736
 O         -0.6575673741       -1.7744849640       -1.6909477011
 C          0.3428934731       -2.9313700917        0.1822711004
 H         -0.0319699158       -2.1606220416        0.8726056935
 O          1.5036525043       -3.5419442429        0.6798122690
 H          2.1492281170       -2.8372670575        0.8741472582
 C         -0.7154495506       -4.0350710149        0.0586267834
 H         -0.3034294016       -4.8393857450       -0.5705147716
 O         -1.0485985092       -4.5376284408        1.3309119087
 H         -0.2136241562       -4.7059736533        1.7863405091
 C         -1.9903757688       -3.4770863917       -0.5825946311
 H         -2.6809848790       -4.3100277315       -0.7891586481
 O         -2.6012415736       -2.5521202396        0.2785568849
 H         -2.5579698107       -2.9362726357        1.1661586441
 C         -2.8561322240       -2.1487160219       -2.5593452206
 H         -3.3855941951       -1.5551634569       -1.8082184341
 H         -3.5134146948       -2.9404474429       -2.9242668494
 O         -2.5077206850       -1.3715258704       -3.6735387574
 H         -1.8761456656       -0.7106987149       -3.3659905233
 C         -1.1719027835        2.5402137208       -0.8144761040
 H         -0.4336033098        3.2866948791       -1.1310823289
 C         -3.5219635449        2.7137456809       -0.3688058634
 H         -3.5478964616        3.4735205865        0.4264414452
 O         -2.4156452832        2.9952283212       -1.2275900468
 C         -1.0795908054        2.3457364054        0.7059034116
 H         -0.0767996583        1.9569797741        0.9252804254
 O         -1.2599380344        3.6041863086        1.3091852857
 H         -1.1527548121        3.5085541967        2.2626351947
 C         -2.1156117804        1.2983080166        1.1828357071
 H         -2.4061704801        1.5732416537        2.2109727029
 O         -1.5353095791        0.0249623958        1.2164880715
 H         -2.0193429450       -0.5500206464        0.5859167008
 C         -3.3784235199        1.3272897657        0.2797803634
 H         -4.2678654808        1.1173664845        0.8830382062
 O         -3.3241703888        0.3109444775       -0.6769087744
 H         -2.5648121227        0.4990819037       -1.2566252291
 C         -4.7803325964        2.7991399296       -1.2213189044
 H         -4.8092682304        1.9622842430       -1.9139246493
 H         -4.7690684470        3.7261061727       -1.7859065175
 H         -5.6614225657        2.7707563537       -0.5869515934
 H          2.6469661824        0.8657608613        4.7141089440
  72
  -125.09113513000000        2.5291335615494372E-005 !
 C          2.1342116084        2.3161859852        0.4904546920
 H          1.3206146817        3.0500383694        0.5571514577
 O          3.2980476048        2.9903901206        0.7777259342
 H          4.0179585299        2.3430623488        0.7932947479
 C          1.0745763985        1.1890877247       -1.3317786763
 H          1.4241838161        0.7213517211       -2.2618849904
 O          2.2357918819        1.8069699867       -0.8340816763
 C          1.9064766307        1.1290199891        1.4423613357
 H          1.8359470297        1.4947657466        2.4715946720
 N          3.0732185477        0.2722374225        1.3198341200
 H          3.2342084739        0.0436158532        0.3417737972
 C          3.1159414030       -0.9050415299        2.0842091926
 O          3.7029466886       -1.9510151384        1.3657636591
 C          3.4108620594       -0.8108510140        3.5453509535
 H          3.1175692331       -1.7319744383        4.0491390843
 H          2.8500871005        0.0114903437        3.9792063263
 H          4.4766424957       -0.6359154614        3.7456238241
 C          0.5879830270        0.4017134136        1.0905069330
 H          0.5868947683       -0.5437762362        1.6505382390
 O         -0.5389279637        1.1089871156        1.5155339392
 H         -0.6481142955        1.8563959785        0.9021865388
 C          0.5321305121        0.0627679473       -0.4157157828
 H         -0.5154007014       -0.1304570606       -0.6850957212
 O          1.2990183173       -1.1276424807       -0.5823881889
 C         -0.0014179445        2.2089718405       -1.7593093137
 H         -0.7143632870        1.7060332937       -2.4167735050
 H          0.4991998646        3.0165294301       -2.3055112478
 O         -0.6914770506        2.7833264340       -0.6525081150
 C          1.0173438190       -1.9011706817       -1.7223982876
 H          0.9307496883       -1.2742430050       -2.6212125057
 C         -0.3750841910       -3.5998954447       -0.6895878576
 H         -1.0267793279       -4.3155690240       -1.2062047092
 O         -0.2187154637       -2.5405673359       -1.6440499421
 C          2.2168437757       -2.8458072389       -1.9274177686
 H          3.0238558064       -2.5041865124       -1.2583022481
 O          2.6275171977       -2.7379342006       -3.2662562883
 H          3.2817397549       -3.4296402057       -3.4294610284
 C          1.8560306079       -4.2989072362       -1.5655357857
 H          1.3359654326       -4.7555630751       -2.4147148353
 O          3.0173240707       -5.0551777731       -1.3447069654
 H          3.3138328825       -4.8679353784       -0.4426622481
 C          0.9419060792       -4.3036568255       -0.3294180004
 H          0.7168676488       -5.3401858966       -0.0536364225
 O          1.6081324108       -3.7784061774        0.7869341066
 H          1.8327905426       -2.8450599534        0.6369552860
 C         -1.1209884442       -3.0770474432        0.5469904054
 H         -0.4902142445       -2.3604064798        1.0879114682
 H         -1.3567618190       -3.9087506505        1.2135798492
 O         -2.3331256221       -2.4807794312        0.1726370781
 H         -2.1517352778       -1.9482007889       -0.6133415970
 C         -2.0788564759        2.8419793731       -0.7663799811
 H         -2.3815305859        3.3347585821       -1.7098866145
 C         -3.9631344593        1.3968819043       -0.6773030774
 H         -4.4118645571        1.9894067670       -1.4911171337
 O         -2.5492804915        1.5147047689       -0.7454941015
 C         -2.5841669323        3.6945542973        0.4095115320
 H         -2.0207008345        3.4047501079        1.3117783271
 O         -2.3268503320        5.0350275173        0.0882880051
 H         -2.7487144679        5.5810889063        0.7651134811
 C         -4.0861244516        3.4793431750        0.6901587925
 H         -4.6670309847        4.0112889786       -0.0723318236
 O         -4.4209793128        4.0494734703        1.9278734261
 H         -4.2417902580        3.3782997002        2.6040795319
 C         -4.4211561557        1.9765425509        0.6675796188
 H         -5.5017494627        1.8483209808        0.7936780509
 O         -3.8146808640        1.3358381541        1.7583995062
 H         -2.9052789094        1.0892371440        1.5242223398
 C         -4.3305700219       -0.0711312764       -0.8267704486
 H         -3.9016994856       -0.4678941569       -1.7425419858
 H         -5.4110535777       -0.1685804463       -0.8708505698
 H         -3.9583988890       -0.6421040708        0.0194038004
 H          4.0017338652       -2.6196365736        1.9893155947
  72
  -125.09112749000001        2.5087689375823982E-005 !
 C          2.1214121905        2.3064657542        0.5309447159
 H          1.3053468364        3.0377875864        0.5938218419
 O          3.2797644748        2.9806687943        0.8392320310
 H          4.0008002640        2.3347105201        0.8608024830
 C          1.0876530410        1.1938829533       -1.3149361784
 H          1.4491107914        0.7366940060       -2.2457574211
 O          2.2409914708        1.8097710689       -0.7971039801
 C          1.8843657537        1.1100745046        1.4691736414
 H          1.7982961796        1.4669758760        2.5003748696
 N          3.0560266947        0.2596658957        1.3553240105
 H          3.2381114583        0.0469530718        0.3774119397
 C          3.0926409179       -0.9292347396        2.1025484635
 O          3.7245649982       -1.9518448061        1.3881738266
 C          3.3376223131       -0.8537941282        3.5742196535
 H          2.7434922443       -0.0528936935        4.0040950814
 H          4.3920111652       -0.6579406318        3.8124705269
 H          3.0497483632       -1.7905868572        4.0516253153
 C          0.5724723734        0.3822244893        1.0932188347
 H          0.5669073628       -0.5682901413        1.6448721152
 O         -0.5623971796        1.0820124143        1.5089939359
 H         -0.6659189839        1.8344673488        0.9007084453
 C          0.5390485078        0.0565363899       -0.4166378290
 H         -0.5029051336       -0.1417264950       -0.7033707992
 O          1.3172212445       -1.1270865139       -0.5788076743
 C          0.0132656329        2.2143329739       -1.7450188337
 H         -0.6938961626        1.7137187995       -2.4104790362
 H          0.5166531675        3.0256327660       -2.2830693907
 O         -0.6860140462        2.7809098149       -0.6399974668
 C          1.0674088560       -1.8969496028       -1.7292119180
 H          1.0122476171       -1.2681585507       -2.6290966818
 C         -0.3632594538       -3.5899498663       -0.7413812169
 H         -0.9807623547       -4.3161469438       -1.2848071055
 O         -0.1725075870       -2.5315019412       -1.6911507564
 C          2.2705431891       -2.8447666225       -1.8947542088
 H          3.0633779160       -2.4909487940       -1.2150986605
 O          2.7073787612       -2.7591768602       -3.2268971404
 H          3.3720499980       -3.4465910996       -3.3632079094
 C          1.9041492620       -4.2918791019       -1.5135278820
 H          1.4202938695       -4.7714345158       -2.3714425285
 O          3.0598700792       -5.0355545158       -1.2304356549
 H          3.3244978414       -4.8192799921       -0.3249635126
 C          0.9421484854       -4.2764014017       -0.3140439181
 H          0.7127044742       -5.3083051070       -0.0249123210
 O          1.5598601659       -3.7208744444        0.8154287935
 H          1.7768928671       -2.7881731965        0.6511498889
 C         -1.1741209100       -3.0690968907        0.4543494076
 H         -0.5796192443       -2.3407967818        1.0201680982
 H         -1.4313620783       -3.8991713372        1.1150346481
 O         -2.3745422524       -2.4907978966        0.0180799487
 H         -2.1640112935       -1.9663840647       -0.7661071466
 C         -2.0715580617        2.8517321891       -0.7707946073
 H         -2.3582820375        3.3595588707       -1.7112558171
 C         -3.9663679125        1.4182825727       -0.7229474126
 H         -4.4026883914        2.0261580817       -1.5321952140
 O         -2.5511244391        1.5277842058       -0.7740188481
 C         -2.5853739025        3.6922204887        0.4101715278
 H         -2.0329813517        3.3884835057        1.3147228051
 O         -2.3178451391        5.0352348954        0.1081850201
 H         -2.7432074531        5.5752039361        0.7876857166
 C         -4.0913294841        3.4814730603        0.6726462580
 H         -4.6614705708        4.0274792438       -0.0880538288
 O         -4.4353656136        4.0361145799        1.9148669505
 H         -4.2673813618        3.3543377941        2.5832851671
 C         -4.4349734423        1.9811313174        0.6253910037
 H         -5.5175661216        1.8578387021        0.7385599383
 O         -3.8435990738        1.3215034837        1.7132816367
 H         -2.9335107207        1.0727042897        1.4844769748
 C         -4.3412643174       -0.0447845916       -0.8994909429
 H         -3.9202636475       -0.4249557752       -1.8257975418
 H         -5.4223652643       -0.1372397888       -0.9380637258
 H         -3.9651809674       -0.6350192282       -0.0684916666
 H          4.0071923837       -2.6274368116        2.0116692681
  72
  -125.09108657000000        2.4024542927116614E-005 !
 C          2.0541516286        2.2737703584        0.7690554028
 H          1.2181769615        2.9811108262        0.8381418160
 O          3.1763210556        2.9535746265        1.1823556840
 H          3.9193375301        2.3335626127        1.1830409990
 C          1.1444101756        1.2693762939       -1.2016979786
 H          1.5665764087        0.8694206180       -2.1334925781
 O          2.2551464426        1.8705348957       -0.5807660179
 C          1.7960678342        1.0092302985        1.6098708998
 H          1.6638807065        1.2916528371        2.6594684760
 N          2.9795326337        0.1847087768        1.4795386644
 H          3.2640703800        0.1270316102        0.5042026682
 C          2.9979553760       -1.1085060825        2.0390746516
 O          3.8884184751       -1.9409793725        1.3663505170
 C          2.8892250508       -1.2671280225        3.5182590732
 H          2.0970802270       -0.6343087585        3.9063294557
 H          3.8212389688       -1.0008706529        4.0371371096
 H          2.6508735489       -2.3029722297        3.7565719918
 C          0.5022087134        0.3119870813        1.1219707466
 H          0.4604740028       -0.6692933615        1.6135094315
 O         -0.6520052306        0.9931192294        1.5117899770
 H         -0.7299258722        1.7729082117        0.9344240695
 C          0.5665489928        0.0739370186       -0.4030550056
 H         -0.4475209304       -0.1346118415       -0.7704602513
 O          1.3916706466       -1.0751839396       -0.5630875371
 C          0.0816126352        2.2985323722       -1.6370499479
 H         -0.5849716385        1.8228532712       -2.3602245111
 H          0.6010065651        3.1399554057       -2.1098355733
 O         -0.6789036369        2.8026595510       -0.5424022624
 C          1.2549266745       -1.8233350242       -1.7471552702
 H          1.2962865406       -1.1795232630       -2.6374074800
 C         -0.2703740060       -3.5287605410       -0.9403494330
 H         -0.7599643096       -4.2813816861       -1.5716125774
 O          0.0182827060       -2.4525514589       -1.8462304680
 C          2.4710112390       -2.7673221438       -1.7874965666
 H          3.2120688251       -2.3676600698       -1.0761185491
 O          2.9914872916       -2.7428099254       -3.0926448906
 H          3.6947622899       -3.4025113245       -3.1414865369
 C          2.1038685551       -4.1997162733       -1.3491056960
 H          1.7712753581       -4.7631142942       -2.2280165586
 O          3.2304704184       -4.8631635382       -0.8411190127
 H          3.3552068905       -4.5498772898        0.0670255917
 C          0.9754308086       -4.1605288316       -0.3038458098
 H          0.7268569901       -5.1877512266       -0.0127419655
 O          1.4070926009       -3.5518493833        0.8820022626
 H          1.6467279568       -2.6237879340        0.7122480037
 C         -1.2825446295       -3.0472915482        0.1089902312
 H         -0.8157427117       -2.2987570995        0.7615223701
 H         -1.6077479761       -3.8899305972        0.7221272541
 O         -2.4217736753       -2.5150228683       -0.5127446208
 H         -2.1128084295       -1.9938509272       -1.2656796708
 C         -2.0541116909        2.8902342016       -0.7513056217
 H         -2.2820801926        3.4641876720       -1.6696231331
 C         -3.9495297894        1.4690794729       -0.9248655591
 H         -4.3315771319        2.1369941164       -1.7140495217
 O         -2.5337720497        1.5727567576       -0.8757644397
 C         -2.6391544092        3.6478509093        0.4522718256
 H         -2.1473097136        3.2749251301        1.3658838817
 O         -2.3487700230        5.0069992657        0.2667143703
 H         -2.8185555222        5.4998469364        0.9527297027
 C         -4.1597054345        3.4299274105        0.6010399470
 H         -4.6778882377        4.0310467093       -0.1552504064
 O         -4.5826054342        3.9002066949        1.8536716419
 H         -4.4585895468        3.1738127037        2.4834924068
 C         -4.5025725663        1.9385977648        0.4273011289
 H         -5.5902763214        1.8143217334        0.4634659460
 O         -3.9813224066        1.2010426160        1.5010336333
 H         -3.0593228992        0.9655350499        1.3106230272
 C         -4.3133330630        0.0253051784       -1.2326908621
 H         -3.8639572963       -0.2765660469       -2.1742499433
 H         -5.3923411998       -0.0653748621       -1.3104537076
 H         -3.9579972965       -0.6334700457       -0.4452644219
 H          4.5024440561       -2.3418171980        1.9930582606
  72
  -125.09104682000000        2.3034951314509210E-005 !
 C          2.6937828737        2.0976460187        0.6758710129
 H          3.5740688864        2.5059160685        1.1955569024
 O          2.2957784222        2.9310535956       -0.3731598090
 H          2.0370954280        3.7870509152       -0.0115189303
 C          0.4985887304        1.4266992692        1.1840915048
 H          0.1186828758        2.0375886250        0.3558735073
 O          1.7084741240        1.9884402397        1.6680722881
 C          3.0506477358        0.7195322949        0.0774003199
 H          3.4673854717        0.1031623306        0.8821846307
 N          4.0435389524        0.8124507565       -0.9575761671
 H          3.7711592860        1.4554051975       -1.6904950748
 C          5.3926095337        0.9844650118       -0.5679981774
 O          5.7492029159        0.2795406393        0.5649419447
 C          6.3893130530        1.0561038422       -1.6794288871
 H          6.0428437757        1.7390799775       -2.4503053477
 H          6.5627941075        0.0767111455       -2.1473235416
 H          7.3415274813        1.4185952791       -1.2949490349
 C          1.7801193068        0.0499518729       -0.4693298056
 H          1.3729841183        0.6481766770       -1.2919509542
 O          2.0768483155       -1.2002658019       -1.0285808362
 H          2.5405664260       -1.7419317906       -0.3647123040
 C          0.7408530009       -0.0054488174        0.6766409182
 H          1.1431739077       -0.6101893387        1.4983367959
 O         -0.5150226366       -0.5198655963        0.2590997866
 C         -0.5129823078        1.4859617158        2.3352584185
 H         -0.2601128274        2.3543012458        2.9557243297
 H         -0.4508437042        0.5814997306        2.9441357912
 O         -1.8559565767        1.5629044764        1.9145574484
 C         -0.7053598218       -1.9205502417        0.2557759674
 H         -1.4856758907       -2.1630210082        1.0075638723
 C          0.5651999287       -3.9387388862        0.4073337147
 H         -0.1901278312       -4.4511285210        1.0246928803
 O          0.4925067711       -2.5434643009        0.6074703685
 C         -1.2703849501       -2.3000592454       -1.1396128456
 H         -0.7185625932       -1.7109250813       -1.8930009322
 O         -2.6377543353       -2.0247007233       -1.1964531265
 H         -2.8170782889       -1.1103058954       -0.9133838719
 C         -1.1058817853       -3.8021773859       -1.4565562047
 H         -1.8689752008       -4.3489689034       -0.8945981229
 O         -1.3448841469       -4.0788403182       -2.8049891159
 H         -0.5659176595       -3.7951239657       -3.3054104354
 C          0.3049735817       -4.2798050127       -1.0663917098
 H          0.3670369789       -5.3637977438       -1.2142371471
 O          1.2630643890       -3.7213472540       -1.9359291356
 H          1.3453939324       -2.7648155181       -1.7503505747
 C          1.9698287269       -4.3612791539        0.8759840397
 H          2.0486290213       -5.4534979106        0.7876730275
 H          2.0933924123       -4.0791448737        1.9239621518
 O          3.0005122195       -3.7212461635        0.1766269947
 H          2.8725676910       -3.9064027094       -0.7692279111
 C         -2.3104205297        2.8291318054        1.4666296109
 H         -1.8697799265        3.6175859264        2.0949292703
 C         -2.5691049590        2.5706516445       -0.9475597049
 H         -2.9827188145        3.4247975775       -1.5041556341
 O         -1.8919757506        3.1424803803        0.1809606091
 C         -3.8355569043        2.8486960223        1.6935417516
 H         -4.0405297370        2.1192821088        2.4937417258
 O         -4.1763392591        4.1434878219        2.1204200635
 H         -5.1323474228        4.1771581608        2.2477478921
 C         -4.6409381935        2.4264460285        0.4425410050
 H         -5.0284041123        3.3328032843       -0.0385686701
 O         -5.7506899443        1.6447797084        0.7975821839
 H         -5.4539565094        0.7234004976        0.8306812274
 C         -3.7434004101        1.6715714853       -0.5512397966
 H         -4.3298708341        1.4460315601       -1.4497981332
 O         -3.3738660276        0.4193692805       -0.0274770871
 H         -2.6849170133        0.5492922772        0.6524182036
 C         -1.5695985599        1.8299267773       -1.8319555213
 H         -0.7312665121        2.4832708480       -2.0584930653
 H         -2.0554259503        1.5380376877       -2.7591903191
 H         -1.2065316177        0.9407510712       -1.3233303358
 H          6.3434435865       -0.4511658993        0.3432373084
  72
  -125.09092156000000        2.0175383022713151E-005 !
 C          3.1506726738        2.1696343207       -0.0435512115
 H          2.4749624143        2.8053942276        0.5438243659
 O          4.0907089005        2.9974872574       -0.5928885567
 H          4.8800593614        2.4689493632       -0.7985515849
 C          1.1797206039        0.9827992600       -0.6458186801
 H          0.9685583094        0.1624710109       -1.3409001858
 O          2.4097544816        1.5286645130       -1.0825217698
 C          3.7754490358        1.0591857724        0.8408940678
 H          4.0037589785        1.4618770529        1.8327291800
 N          5.0104302221        0.6515583662        0.2223589062
 H          4.8559881474        0.2826696918       -0.7124579506
 C          5.9461045549       -0.1437531166        0.9487746770
 O          5.7549511054       -0.2998508658        2.2999476042
 C          7.3717684708        0.0101427717        0.5267119126
 H          7.9725983313       -0.7382260115        1.0354017074
 H          7.7728742369        0.9980441081        0.7804356978
 H          7.4601282884       -0.1255039902       -0.5490853538
 C          2.7563641665       -0.0976184007        0.9865680225
 H          2.9739497035       -0.8384389562        0.1970856088
 O          2.9105775732       -0.6889219071        2.2503010207
 H          2.2120853013       -1.3512335038        2.3777080293
 C          1.3216352065        0.4256055386        0.7843814916
 H          1.1321553637        1.2081476246        1.5281007879
 O          0.3694896960       -0.5641542544        1.1366696766
 C          0.0571479036        2.0320353015       -0.8085141926
 H          0.2851241439        2.5952868388       -1.7183687744
 H          0.0364146102        2.7157506343        0.0459022785
 O         -1.2316223252        1.4753741158       -1.0039980107
 C          0.2481023902       -1.6913637463        0.3395437091
 H          1.2063703185       -1.9809142418       -0.1324386506
 C         -0.9416408396       -2.5349392829       -1.5104452062
 H          0.0138842525       -2.8834361679       -1.9339569161
 O         -0.6996604021       -1.4255107351       -0.6610347136
 C         -0.1943545628       -2.8340144869        1.2602829342
 H         -1.0503150455       -2.4760543353        1.8525910947
 O          0.8972959307       -3.1191244103        2.1016642231
 H          0.6960685363       -3.9411848987        2.5684069159
 C         -0.6101272801       -4.0713209497        0.4430868864
 H          0.2907841078       -4.5337325106        0.0223743668
 O         -1.2042814075       -5.0246038168        1.2828081538
 H         -2.1484120149       -4.8088789860        1.3296846139
 C         -1.5792128331       -3.6598951156       -0.6861888876
 H         -1.7813404267       -4.5309074965       -1.3199084905
 O         -2.8087201526       -3.2759185349       -0.1336477372
 H         -2.7614454251       -2.3388597119        0.1429495986
 C         -1.8603518912       -2.0248955766       -2.6315623661
 H         -2.8741088009       -1.9035421870       -2.2249034824
 H         -1.8936405397       -2.7591207252       -3.4388907178
 O         -1.3899351784       -0.8308351250       -3.1850547339
 H         -1.2261126845       -0.2048609340       -2.4624407104
 C         -1.9869599922        1.2743500156        0.1838667165
 H         -1.4338604775        0.6463132250        0.8912603099
 C         -3.0594189445        3.4515125476        0.2657952844
 H         -3.6212810446        3.8590844050        1.1157472939
 O         -2.2129246113        2.4623748181        0.8692356736
 C         -3.2700668037        0.5275152016       -0.2284940703
 H         -3.1490162369        0.1982497211       -1.2713592866
 O         -3.4438421603       -0.6012363572        0.5985673559
 H         -4.3790462370       -0.8470555086        0.5526021586
 C         -4.4888000310        1.4610905047       -0.1626579695
 H         -4.8108107328        1.5617505966        0.8798391076
 O         -5.5686270094        0.9099378070       -0.8696772138
 H         -5.4374538299        1.1111844660       -1.8069652544
 C         -4.0701697431        2.8332484864       -0.7162417767
 H         -4.9505440856        3.4824484922       -0.7783470350
 O         -3.6089568116        2.7116331392       -2.0370192593
 H         -2.7200625869        2.3217737074       -2.0255188545
 C         -2.2531000996        4.5801487309       -0.3738520111
 H         -1.7240955674        4.2381195409       -1.2586776398
 H         -1.5338601544        4.9647291976        0.3437404405
 H         -2.9296659402        5.3794179591       -0.6635702194
 H          4.8209550602       -0.4923629033        2.4817017889
  72
  -125.09089432000000        1.9602124858660293E-005 !
 C          2.9061023692        2.3007018061       -0.2097670711
 H          3.6283576273        3.0994399788       -0.4148045426
 O          2.5401104758        1.7890265892       -1.4483866611
 H          1.8504818541        1.1136696467       -1.3317719105
 C          0.7348658074        2.0961289289        0.7022165064
 H          0.0668747781        2.1919726615       -0.1678225526
 O          1.8664727719        2.9216894359        0.5000237120
 C          3.5472150093        1.2314458463        0.6912274813
 H          3.9031528096        1.7292039306        1.6019728516
 N          4.6760993559        0.6571140072        0.0012745723
 H          4.5047242727        0.5662838402       -0.9937838060
 C          5.3016177407       -0.4821646820        0.5505126186
 O          5.3574816214       -0.4888515808        1.9364570457
 C          6.4916721540       -1.0059631257       -0.1850289855
 H          6.2807721311       -1.0619593139       -1.2493572797
 H          6.7364269365       -2.0036013570        0.1765870182
 H          7.3776611434       -0.3705898263       -0.0485328548
 C          2.4895457434        0.1788764625        1.1235119714
 H          2.6771324781       -0.7352060484        0.5322724407
 O          2.5929387588       -0.1134276750        2.4916756712
 H          3.5146808488       -0.3679531615        2.6583178852
 C          1.0307991931        0.5900144392        0.8481443698
 H          0.4384718634        0.2125699124        1.6919459639
 O          0.5468188229       -0.0015569886       -0.3599499803
 C         -0.0237650974        2.5968491368        1.9414622511
 H         -0.2260627394        3.6680747702        1.8339231939
 H          0.5841405490        2.4286205078        2.8326888520
 O         -1.2172874708        1.8669720091        2.1432415795
 C          0.2509071591       -1.3594349668       -0.3130910289
 H          0.1762381030       -1.7084782265        0.7344438879
 C          1.0458753286       -3.4503061603       -1.0369243970
 H          0.9663539740       -3.8679202635       -0.0204506989
 O          1.2837139082       -2.0554783415       -0.9649832207
 C         -1.1209990239       -1.5549560412       -0.9811638166
 H         -1.0792020708       -1.1235918857       -1.9928254810
 O         -2.0874020047       -0.9084455727       -0.1959168860
 H         -1.8041164696        0.0199019654       -0.0668740114
 C         -1.4492635812       -3.0527672166       -1.0871475159
 H         -1.5947288017       -3.4544430070       -0.0793734317
 O         -2.6358595525       -3.2926144689       -1.7770530925
 H         -2.4731444624       -3.0952025909       -2.7097485334
 C         -0.2637417067       -3.7486066373       -1.7866450522
 H         -0.4325214866       -4.8383920069       -1.7719115069
 O         -0.2529855538       -3.2807018433       -3.1131704023
 H          0.6294029592       -3.4455932877       -3.4859662599
 C          2.2754249826       -4.0432537058       -1.7413791768
 H          2.1275495123       -5.1093255126       -1.9240443539
 H          3.1518773810       -3.9070505505       -1.0955477788
 O          2.4892543319       -3.4400895799       -2.9930599351
 H          2.5477565080       -2.4867925196       -2.8406516525
 C         -2.3190599924        2.2613001089        1.4099564655
 H         -2.4447121251        3.3624252015        1.4409925476
 C         -3.2309758872        2.2497670882       -0.7923849850
 H         -3.3500560979        3.3427021125       -0.7120365214
 O         -2.1599545723        1.8578805257        0.0587803418
 C         -3.5620525762        1.5892841188        2.0070326788
 H         -3.3796125187        0.5025028094        2.0218818129
 O         -3.7553098621        2.0754544441        3.3068989558
 H         -4.6367857278        1.7906551475        3.5855654914
 C         -4.8037729781        1.8983762681        1.1448263646
 H         -5.0511729327        2.9588478606        1.2821522106
 O         -5.8992846281        1.1547091240        1.6095325468
 H         -5.9123321488        0.3330136295        1.0909871009
 C         -4.5562942975        1.6039533890       -0.3507817902
 H         -5.3735907017        2.0546408874       -0.9283165855
 O         -4.6531229483        0.2277063405       -0.5930782082
 H         -3.8151520380       -0.2304146817       -0.3952384196
 C         -2.8572761566        1.8664237058       -2.2178604306
 H         -2.8793911112        0.7864293955       -2.3321122559
 H         -1.8593894605        2.2296625020       -2.4460166387
 H         -3.5683394696        2.3054211137       -2.9111073168
 H          6.2466835852       -0.2710171321        2.2524194368
  72
  -125.09088849000000        1.9481566203718749E-005 !
 C          2.9091629058        2.2965685390       -0.2142105316
 H          3.6322094673        3.0948309479       -0.4183597883
 O          2.5496030547        1.7803671544       -1.4528658943
 H          1.8578173807        1.1069937707       -1.3377132915
 C          0.7348220861        2.0940898178        0.6928506688
 H          0.0650574576        2.1896364269       -0.1758593951
 O          1.8659539246        2.9197586768        0.4878831642
 C          3.5462576627        1.2308921683        0.6939607224
 H          3.8925840247        1.7308083518        1.6072437959
 N          4.6829873853        0.6606895993        0.0139698873
 H          4.5192514762        0.5655082644       -0.9819346261
 C          5.3147995520       -0.4714737954        0.5708619350
 O          5.3552109926       -0.4773786777        1.9573253579
 C          6.5200963867       -0.9802095071       -0.1503818823
 H          7.3975851980       -0.3364530304        0.0012728843
 H          6.3245920477       -1.0333895063       -1.2177626282
 H          6.7700945908       -1.9768946169        0.2102013803
 C          2.4882214273        0.1752011705        1.1172447684
 H          2.6780644113       -0.7358759058        0.5220274498
 O          2.5864410057       -0.1237438547        2.4842864294
 H          3.5088569752       -0.3739009615        2.6546206592
 C          1.0302114529        0.5879196120        0.8392607885
 H          0.4364592923        0.2113113050        1.6824105138
 O          0.5472028127       -0.0042233497       -0.3689734132
 C         -0.0205207656        2.5966487865        1.9334444289
 H         -0.2204308702        3.6683533526        1.8259069504
 H          0.5888385724        2.4273468405        2.8234832307
 O         -1.2153167042        1.8700171521        2.1384001762
 C          0.2531590245       -1.3626606274       -0.3213309474
 H          0.1856040045       -1.7125492005        0.7263992445
 C          1.0475778181       -3.4520375483       -1.0488353133
 H          0.9760182385       -3.8686165552       -0.0312722277
 O          1.2830183670       -2.0566370453       -0.9800142942
 C         -1.1223952129       -1.5608394347       -0.9811244740
 H         -1.0870101412       -1.1311083423       -1.9937389523
 O         -2.0855323224       -0.9147638440       -0.1915219322
 H         -1.8031377269        0.0141391778       -0.0653182264
 C         -1.4483136098       -3.0595049342       -1.0827552284
 H         -1.5863740489       -3.4599174851       -0.0734480980
 O         -2.6388964796       -3.3029018802       -1.7644807015
 H         -2.4826699641       -3.1066301798       -2.6985167998
 C         -0.2663970298       -3.7544269880       -1.7892960219
 H         -0.4328204650       -4.8445832992       -1.7715170472
 O         -0.2658430950       -3.2886063798       -3.1165966114
 H          0.6139193312       -3.4532894507       -3.4956241743
 C          2.2733856984       -4.0434001590       -1.7610639074
 H          2.1267499285       -5.1103273087       -1.9396634935
 H          3.1541468726       -3.9034290348       -1.1219173444
 O          2.4768374535       -3.4433937294       -3.0160153614
 H          2.5351151034       -2.4895492803       -2.8669839920
 C         -2.3171671239        2.2652642481        1.4056841340
 H         -2.4375071908        3.3671343813        1.4303218291
 C         -3.2359420762        2.2413906517       -0.7938523883
 H         -3.3528235084        3.3350465993       -0.7201892272
 O         -2.1632326636        1.8527552308        0.0566998354
 C         -3.5614998778        1.6031779009        2.0110785177
 H         -3.3832798723        0.5159064382        2.0353120513
 O         -3.7493394046        2.1019021453        3.3070173025
 H         -4.6310502542        1.8229267491        3.5907765739
 C         -4.8042961582        1.9088580450        1.1493897583
 H         -5.0478364906        2.9712700199        1.2779893906
 O         -5.9013909632        1.1732214660        1.6231123290
 H         -5.9170157755        0.3459465486        1.1137451746
 C         -4.5606041698        1.6003395492       -0.3438676476
 H         -5.3790204300        2.0459409269       -0.9238047937
 O         -4.6579526982        0.2217883310       -0.5727267421
 H         -3.8180323879       -0.2336688526       -0.3777091366
 C         -2.8677185623        1.8483599424       -2.2181183346
 H         -2.8907875037        0.7676452093       -2.3249801234
 H         -1.8704688748        2.2095186855       -2.4523368002
 H         -3.5811568501        2.2830173895       -2.9117463537
 H          6.2386510946       -0.2510147098        2.2833079693
  72
  -125.09088225000001        1.9353350554998196E-005 !
 C          2.9133182335        2.2988364855       -0.2115073704
 H          3.6358668673        3.0977162550       -0.4148819475
 O          2.5533510136        1.7842649162       -1.4507062939
 H          1.8617806734        1.1106005187       -1.3362105524
 C          0.7396937365        2.0934638602        0.6961905952
 H          0.0700765916        2.1896915943       -0.1724505328
 O          1.8701432647        2.9203997500        0.4921073112
 C          3.5513922184        1.2324694071        0.6949755769
 H          3.8970435328        1.7316666612        1.6088426929
 N          4.6887843820        0.6637836053        0.0150046695
 H          4.5242414144        0.5646211654       -0.9803273164
 C          5.3248695584       -0.4638937242        0.5760323004
 O          5.3696974716       -0.4620430021        1.9621269997
 C          6.5278010042       -0.9748355251       -0.1474042028
 H          6.7886973959       -1.9633176847        0.2277636281
 H          7.4011924524       -0.3214868005       -0.0147833241
 H          6.3230564652       -1.0478280007       -1.2119016947
 C          2.4944033220        0.1752405927        1.1167731736
 H          2.6842226928       -0.7345576475        0.5194491918
 O          2.5939310016       -0.1265790425        2.4830551159
 H          3.5173497457       -0.3728935146        2.6534657063
 C          1.0358283349        0.5872295181        0.8405436373
 H          0.4428838857        0.2095200383        1.6837711871
 O          0.5526672086       -0.0036855090       -0.3683109652
 C         -0.0164825120        2.5934548727        1.9374691678
 H         -0.2186287793        3.6647855698        1.8309691960
 H          0.5932247072        2.4245715185        2.8273474268
 O         -1.2098380221        1.8639747752        2.1414708090
 C          0.2531538183       -1.3610916502       -0.3205853942
 H          0.1931990281       -1.7125565650        0.7270286143
 C          1.0329091480       -3.4525036178       -1.0579996816
 H          0.9712941580       -3.8700587772       -0.0402238830
 O          1.2740891429       -2.0579356443       -0.9897983167
 C         -1.1286083557       -1.5533617788       -0.9690836414
 H         -1.0994305074       -1.1252178223       -1.9825213191
 O         -2.0828994282       -0.9023546297       -0.1729330434
 H         -1.7975348871        0.0265058921       -0.0523054114
 C         -1.4620447805       -3.0506407423       -1.0656601714
 H         -1.5907596464       -3.4494269986       -0.0544682227
 O         -2.6609833363       -3.2897571153       -1.7339930212
 H         -2.5145640898       -3.0946860767       -2.6698429209
 C         -0.2901880616       -3.7504006022       -1.7840092877
 H         -0.4602936501       -4.8399403970       -1.7634064083
 O         -0.3025075676       -3.2859983769       -3.1117169669
 H          0.5729341434       -3.4524682868       -3.4998172658
 C          2.2486639420       -4.0470467850       -1.7845903232
 H          2.0960730908       -5.1130858481       -1.9637151473
 H          3.1370947934       -3.9116087530       -1.1551303319
 O          2.4400740419       -3.4450843007       -3.0404348337
 H          2.5016025848       -2.4916489857       -2.8901675828
 C         -2.3133847473        2.2596690669        1.4114221637
 H         -2.4418955687        3.3602455207        1.4486435077
 C         -3.2266575636        2.2551516430       -0.7906971015
 H         -3.3504089040        3.3471780907       -0.7055824609
 O         -2.1536883852        1.8639498768        0.0581574981
 C         -3.5536857417        1.5805004462        2.0059982359
 H         -3.3665947304        0.4944838235        2.0174528709
 O         -3.7487702764        2.0617936778        3.3074351493
 H         -4.6277620562        1.7699515520        3.5864924005
 C         -4.7973293118        1.8868218560        1.1454635395
 H         -5.0506626018        2.9451798987        1.2882948962
 O         -5.8883294588        1.1343261533        1.6065749478
 H         -5.8976662040        0.3159563779        1.0826561651
 C         -4.5491262410        1.6015820449       -0.3518125934
 H         -5.3682673845        2.0522938684       -0.9266439210
 O         -4.6408489754        0.2266734562       -0.6025225880
 H         -3.8046977111       -0.2314402524       -0.3955240847
 C         -2.8513575288        1.8795041130       -2.2176705677
 H         -2.8637017908        0.7996132706       -2.3346327074
 H         -1.8570870641        2.2524851161       -2.4460741551
 H         -3.5674748357        2.3137989931       -2.9087630587
 H          6.2511799600       -0.2231367021        2.2846723541
  72
  -125.09081997000000        1.8119001333420096E-005 !
 C          3.5504450404        2.0225336386        0.2652919961
 H          4.1222665617        2.8098582102        0.7824318203
 O          3.6447578582        2.1621138478       -1.1194646215
 H          3.3076959955        3.0292493876       -1.3729121981
 C          1.3167477085        1.2286629804        0.2143670710
 H          1.2244935284        1.3482618132       -0.8747837418
 O          2.2373007248        2.1755881945        0.7344434781
 C          4.1094529823        0.6415776561        0.6472627705
 H          4.0984730619        0.5626888664        1.7389660079
 N          5.4635069023        0.4243410758        0.1735121339
 H          5.5479893223        0.7195680492       -0.7951435205
 C          6.5191940018        0.9635452202        0.9357965935
 O          7.4988103831        1.5387879899        0.1375606153
 C          6.9528612073        0.2237411756        2.1600044835
 H          7.4361008313        0.9000184819        2.8655416938
 H          7.6618902904       -0.5826348325        1.9258706899
 H          6.0893626273       -0.2217436015        2.6442914051
 C          3.2055564030       -0.4543571159        0.0674443600
 H          3.2588754925       -0.4220561632       -1.0316916692
 O          3.6219775712       -1.7105723806        0.5414981981
 H          4.5770990214       -1.7626381339        0.4002751872
 C          1.7435558924       -0.2236493478        0.4856661149
 H          1.6449165748       -0.4472405601        1.5552569026
 O          0.8773664993       -1.0495832714       -0.2638670170
 C         -0.0254354674        1.5722851732        0.8614770825
 H         -0.1126515470        2.6637825360        0.8822845246
 H         -0.0574713435        1.1890288950        1.8897754973
 O         -1.0835116403        1.0149569499        0.1029026972
 C          0.6347444821       -2.3393201739        0.2887463304
 H          1.4733695571       -2.6183235400        0.9364894830
 C         -0.5565088490       -3.4588404820       -1.4851961076
 H         -0.3084522901       -4.3196334862       -2.1161998176
 O          0.6305771296       -3.2951562109       -0.7207277647
 C         -0.6649208452       -2.3292854154        1.1126865353
 H         -1.3123083247       -1.5028744840        0.7806358506
 O         -0.3451090909       -2.1458785528        2.4726265713
 H         -1.0860641986       -2.5132979773        2.9764198237
 C         -1.3948200143       -3.6640239208        0.9010934552
 H         -0.7347727780       -4.4815652006        1.2110854001
 O         -2.5391030650       -3.7214625965        1.7100723295
 H         -3.2489872627       -3.2959927139        1.2015603398
 C         -1.7755553853       -3.8185571273       -0.5897938837
 H         -2.0629431549       -4.8631389586       -0.7582862548
 O         -2.9340825076       -3.0753360836       -0.8603935932
 H         -2.6676174344       -2.1477137315       -1.0102273963
 C         -0.8186642890       -2.2821435447       -2.4516496007
 H         -1.5414193404       -2.6146304753       -3.2022688728
 H          0.1316251784       -2.0514280630       -2.9468012340
 O         -1.3704610553       -1.1274748230       -1.8704116716
 H         -0.7160840525       -0.7316016145       -1.2669345650
 C         -2.3237760101        1.5560407687        0.3969889554
 H         -2.5154136538        1.5535246527        1.4901313229
 C         -3.5752059772        3.5511970514        0.1103224957
 H         -3.8857867852        3.4601570924        1.1633364266
 O         -2.3369697841        2.8875865232       -0.0754571987
 C         -3.3926670752        0.6949513983       -0.2923096018
 H         -3.0584101138        0.5112502230       -1.3250384190
 O         -3.4904263711       -0.5223957943        0.4019097074
 H         -4.2795299748       -0.9750813064        0.0708447790
 C         -4.7648968184        1.3987074078       -0.3060270453
 H         -5.1815593350        1.3763222200        0.7077786667
 O         -5.6588478800        0.6838216747       -1.1185844498
 H         -5.4971781635        0.9577752699       -2.0331228697
 C         -4.6127844889        2.8534504530       -0.7830096699
 H         -5.5818913744        3.3602003415       -0.7398254509
 O         -4.2072252625        2.8715988803       -2.1290782256
 H         -3.2445696896        2.7620154576       -2.1365130900
 C         -3.3858626163        5.0149674882       -0.2606030648
 H         -4.2865042730        5.5726180736       -0.0222870548
 H         -3.1824677410        5.1042784074       -1.3241434488
 H         -2.5478550672        5.4265939899        0.2936991833
 H          8.3659461980        1.3890532727        0.5277858016
  72
  -125.09081109000000        1.7949538689566316E-005 !
 C          3.5447607469        2.0187982934        0.2635129276
 H          4.1168650643        2.8079722507        0.7776194234
 O          3.6315481268        2.1581161649       -1.1217201861
 H          3.2915997093        3.0245370802       -1.3737597386
 C          1.3141507150        1.2183016123        0.2209442183
 H          1.2191408167        1.3385282304       -0.8678442418
 O          2.2333346777        2.1674596223        0.7390317538
 C          4.1103852209        0.6396490314        0.6429955201
 H          4.1050343017        0.5610524414        1.7347323212
 N          5.4629629347        0.4276409619        0.1625832470
 H          5.5387126114        0.7155945878       -0.8089817025
 C          6.5193108528        0.9830798758        0.9122969494
 O          7.4887104914        1.5582713501        0.1018008776
 C          6.9674017750        0.2600727393        2.1413562880
 H          7.4610459796        0.9457085634        2.8304052592
 H          7.6719725037       -0.5511952686        1.9103066000
 H          6.1096881614       -0.1766392167        2.6437952769
 C          3.2076859393       -0.4596962689        0.0678469060
 H          3.2572151497       -0.4288152107       -1.0315365556
 O          3.6278881733       -1.7143848381        0.5426123873
 H          4.5822889599       -1.7658297998        0.3975646376
 C          1.7464990169       -0.2326219230        0.4905668255
 H          1.6520986652       -0.4563564160        1.5605471994
 O          0.8804294642       -1.0611749309       -0.2560750837
 C         -0.0285785827        1.5557312506        0.8701794274
 H         -0.1146564678        2.6469519172        0.9048881180
 H         -0.0643677581        1.1588121183        1.8930554213
 O         -1.0848623068        1.0097829091        0.1007226733
 C          0.6317931033       -2.3469485983        0.3025189559
 H          1.4655991178       -2.6237434795        0.9574569796
 C         -0.5501079276       -3.4728869342       -1.4729544047
 H         -0.2995563806       -4.3368287615       -2.0988098502
 O          0.6321798250       -3.3088867671       -0.7010550243
 C         -0.6736993408       -2.3291129180        1.1172058687
 H         -1.3169055071       -1.5034185905        0.7753432608
 O         -0.3631678570       -2.1378190234        2.4782733859
 H         -1.1082509118       -2.5012852795        2.9789269445
 C         -1.4059449581       -3.6630121088        0.9086425266
 H         -0.7505703364       -4.4803451065        1.2289781896
 O         -2.5565870961       -3.7117020626        1.7091792194
 H         -3.2611519485       -3.2868038767        1.1927652354
 C         -1.7758937072       -3.8265061222       -0.5841502782
 H         -2.0629771657       -4.8719413735       -0.7481786159
 O         -2.9316581187       -3.0841831113       -0.8682654584
 H         -2.6635090847       -2.1573431948       -1.0202704333
 C         -0.8037681267       -2.2997268594       -2.4462580946
 H         -1.5211334116       -2.6342206014       -3.2012857358
 H          0.1507006004       -2.0722901080       -2.9348926661
 O         -1.3587593575       -1.1420174022       -1.8740367165
 H         -0.7079278600       -0.7440115517       -1.2682325359
 C         -2.3257737842        1.5475818243        0.3980820333
 H         -2.5222118445        1.5281660594        1.4901947198
 C         -3.5744859996        3.5475999869        0.1362090527
 H         -3.8921659200        3.4380504406        1.1853667209
 O         -2.3353709925        2.8864844346       -0.0531073946
 C         -3.3920490671        0.6975695030       -0.3091049194
 H         -3.0506271995        0.5246720174       -1.3414449019
 O         -3.4968602553       -0.5274338116        0.3705445329
 H         -4.2828873548       -0.9762129956        0.0269698921
 C         -4.7632713550        1.4037372655       -0.3244457049
 H         -5.1890584861        1.3657889984        0.6850569962
 O         -5.6506561130        0.7033375781       -1.1566032224
 H         -5.4809137490        0.9924720122       -2.0650139268
 C         -4.6056496155        2.8657832162       -0.7766233986
 H         -5.5745621575        3.3728286258       -0.7331959609
 O         -4.1887004282        2.9053666032       -2.1188223004
 H         -3.2259306510        2.7962514077       -2.1195493713
 C         -3.3821898650        5.0177205373       -0.2072481384
 H         -3.1765615662        5.1263101441       -1.2686000642
 H         -2.5448764409        5.4177895735        0.3563007412
 H         -4.2824948010        5.5722538227        0.0395364937
 H          8.3604198693        1.4144549378        0.4842962496
  72
  -125.09071974000000        1.6295651874858271E-005 !
 C          2.7099884751        2.5296279928        0.5961604897
 H          2.6452142786        3.4645043247        1.1687858651
 O          3.7730590461        2.6299740115       -0.2820166046
 H          4.2728336007        1.7920042910       -0.2318398303
 C          1.1473902286        1.2393008619       -0.6541947069
 H          1.9959757309        0.8862974954       -1.2606723472
 O          1.4657958249        2.4956293927       -0.0862806179
 C          2.8578250133        1.3026903568        1.5368451544
 H          3.2990344286        1.6295610416        2.4799797606
 N          3.7812620642        0.3372667258        0.9183402405
 H          3.3134122979       -0.1637859623        0.1679580840
 C          4.4679775800       -0.5924005560        1.7121436390
 O          4.0759579120       -1.9175935176        1.6779051740
 C          5.1288380901       -0.1577630833        2.9723182279
 H          4.4246152416       -0.0484777542        3.8072944392
 H          5.6339970350        0.7923811295        2.8166088725
 H          5.8589602003       -0.9103385290        3.2601704555
 C          1.4678779439        0.6949245135        1.8075396311
 H          1.5919875089       -0.1931654762        2.4377853566
 O          0.6232337389        1.5508715920        2.5190371422
 H          0.4364907777        2.3475585492        1.9993022789
 C          0.8444348473        0.2232056949        0.4725971491
 H         -0.2397615438        0.1357342473        0.6043700228
 O          1.3954782011       -1.0655960914        0.2292890548
 C         -0.0508328955        1.4437592131       -1.5980705923
 H         -0.1609005741        0.5703351273       -2.2456384465
 H          0.1291202647        2.3336138509       -2.2092765100
 O         -1.2729585524        1.5558061179       -0.9064086994
 C          0.8401362357       -1.8242761869       -0.7824989192
 H          1.0291884290       -1.3726486572       -1.7810657869
 C         -1.1734962730       -2.7578700155       -1.5644696827
 H         -1.0218789333       -2.3201444111       -2.5654764436
 O         -0.5444561535       -1.9478855260       -0.5891631381
 C          1.5307237304       -3.1914336880       -0.7205808929
 H          1.3385638097       -3.6213045951        0.2744558395
 O          2.9080647936       -2.9950639000       -0.9136314114
 H          3.2902514110       -3.8566164998       -1.1346266002
 C          0.9319183447       -4.1179934779       -1.7903162386
 H          1.1648744086       -3.7197691930       -2.7847523723
 O          1.5192985385       -5.3862476197       -1.7197564479
 H          1.0885315748       -5.8570662187       -0.9916387789
 C         -0.5903060447       -4.1842835882       -1.5758984227
 H         -1.0514094109       -4.7374690911       -2.4118589122
 O         -0.7901837546       -4.8795847512       -0.3720892316
 H         -1.6610735295       -4.6283024159       -0.0164278701
 C         -2.6725461571       -2.7464807689       -1.2210083635
 H         -3.2122595127       -3.4139887865       -1.8959019023
 H         -3.0608558625       -1.7275817866       -1.3347178306
 O         -2.9032066593       -3.2174842031        0.0829745011
 H         -2.4398163315       -2.6257669316        0.6903143057
 C         -1.5673474119        2.8382071063       -0.3667788218
 H         -0.6537968832        3.4353508364       -0.2817718016
 C         -3.7054841469        3.0270961292       -1.4505267591
 H         -4.3398587049        3.9174582824       -1.5385847352
 O         -2.3989960235        3.5604815426       -1.2120943036
 C         -2.1462910972        2.6433251477        1.0511551853
 H         -1.9209576473        1.6161044239        1.3823366908
 O         -1.5038822473        3.5587530246        1.9002397690
 H         -1.9330721516        3.5172102209        2.7644845391
 C         -3.6765540163        2.8185585053        1.0380819497
 H         -3.9137701143        3.8869907310        1.0685424444
 O         -4.2611651224        2.2396160907        2.1752669764
 H         -4.3368369922        1.2892763106        2.0124260450
 C         -4.2200506772        2.1950964426       -0.2604802354
 H         -5.3149280648        2.2267391907       -0.2460013505
 O         -3.8940154370        0.8257314536       -0.3195138369
 H         -2.9547156389        0.7533815145       -0.5491737252
 C         -3.7549340646        2.2520103798       -2.7668440083
 H         -4.7709768765        1.9144141782       -2.9513801717
 H         -3.0956870327        1.3891817361       -2.7331619505
 H         -3.4372018242        2.9018435588       -3.5770566285
 H          3.5915838706       -2.1064585891        0.8599195646
  72
  -125.09071852000000        1.6274627799571322E-005 !
 C          2.7059745386        2.5300487814        0.5979055086
 H          2.6378473915        3.4635525276        1.1723282221
 O          3.7699862951        2.6351646600       -0.2783242794
 H          4.2682227812        1.7957696081       -0.2336833357
 C          1.1442742422        1.2379624323       -0.6540445634
 H          1.9922901084        0.8852744768       -1.2614542181
 O          1.4625205997        2.4942683664       -0.0861057179
 C          2.8553419919        1.3014594524        1.5359160605
 H          3.2978480101        1.6265488118        2.4789743576
 N          3.7788000424        0.3384059990        0.9137869451
 H          3.3092911798       -0.1637555525        0.1652965605
 C          4.4715289384       -0.5895606947        1.7043800318
 O          4.0816836075       -1.9155417306        1.6733359482
 C          5.1389108251       -0.1526917740        2.9602528911
 H          5.6379366504        0.8000273089        2.8014123071
 H          5.8749956165       -0.9015692792        3.2421363608
 H          4.4401992019       -0.0478254525        3.8003264155
 C          1.4662276247        0.6919156282        1.8074299307
 H          1.5915158966       -0.1969389849        2.4364095743
 O          0.6212284367        1.5460893422        2.5205162968
 H          0.4319650695        2.3427137160        2.0015752814
 C          0.8424436158        0.2209507463        0.4723571224
 H         -0.2416712925        0.1325049406        0.6041800213
 O          1.3949719447       -1.0671945201        0.2283237053
 C         -0.0544764396        1.4426830957       -1.5973705389
 H         -0.1654486498        0.5694027358       -2.2450328189
 H          0.1254792577        2.3326596842       -2.2085147186
 O         -1.2761105813        1.5556163886       -0.9049342113
 C          0.8386209818       -1.8276410218       -0.7814064896
 H          1.0224354993       -1.3755346625       -1.7807448998
 C         -1.1748685291       -2.7671260298       -1.5566180245
 H         -1.0293197728       -2.3276315546       -2.5577615068
 O         -0.5448499499       -1.9559360787       -0.5830193228
 C          1.5333603168       -3.1928166862       -0.7218471194
 H          1.3439113026       -3.6241738209        0.2730711206
 O          2.9099529699       -2.9929809713       -0.9170358310
 H          3.2937231346       -3.8534528240       -1.1396609852
 C          0.9346917349       -4.1196399400       -1.7914862293
 H          1.1633978600       -3.7189339105       -2.7859010073
 O          1.5264728783       -5.3860357934       -1.7248318434
 H          1.0991907877       -5.8596942078       -0.9964855344
 C         -0.5867365162       -4.1916008268       -1.5727146994
 H         -1.0486918135       -4.7444475432       -2.4084649434
 O         -0.7802943829       -4.8904240426       -0.3699736950
 H         -1.6512778733       -4.6440287452       -0.0112304068
 C         -2.6723433598       -2.7610682374       -1.2065431828
 H         -3.2132860857       -3.4284003465       -1.8805427268
 H         -3.0637604613       -1.7428931713       -1.3163158752
 O         -2.8957003225       -3.2358274819        0.0974426926
 H         -2.4288898547       -2.6457199067        0.7038239020
 C         -1.5662690511        2.8379890540       -0.3623833109
 H         -0.6500188047        3.4302383200       -0.2721454843
 C         -3.7009314363        3.0452592291       -1.4507333789
 H         -4.3288662722        3.9405436718       -1.5344527850
 O         -2.3908731528        3.5678462098       -1.2079471911
 C         -2.1507907813        2.6410233916        1.0528144271
 H         -1.9309437337        1.6116437413        1.3808639676
 O         -1.5067454096        3.5508590112        1.9065689413
 H         -1.9361215355        3.5062295304        2.7703793776
 C         -3.6802755457        2.8237292761        1.0364031188
 H         -3.9125835201        3.8930431013        1.0722030626
 O         -4.2713255337        2.2409119870        2.1682886232
 H         -4.3524570103        1.2922453194        1.9989400578
 C         -4.2234870673        2.2097491784       -0.2667239774
 H         -5.3182690669        2.2475241406       -0.2552917659
 O         -3.9047743445        0.8390696954       -0.3323293906
 H         -2.9652649217        0.7626888053       -0.5590807252
 C         -3.7544948889        2.2783207544       -2.7716335895
 H         -4.7722205903        1.9473592520       -2.9589236986
 H         -3.1004133863        1.4115769561       -2.7421773238
 H         -3.4321160443        2.9307946662       -3.5779407915
 H          3.5956625763       -2.1062358731        0.8567298452
  72
  -125.09066455999999        1.5371376709141321E-005 !
 C         -0.0335005746        0.4578893980       -1.4580385356
 H         -0.1424073925        1.1444325529       -2.3092201793
 O          0.3410297291       -0.7719970928       -2.0182232735
 H          0.1233641876       -1.4730673637       -1.3718251169
 C         -1.3612045166        0.0549798528        0.5144120127
 H         -2.2363784918       -0.5984742401        0.6014390206
 O         -1.2935864920        0.3836577093       -0.8642242748
 C          1.0110498557        1.0217147796       -0.4588693054
 H          0.5803262820        1.9642030587       -0.0951713431
 N          2.3193489472        1.3357300910       -0.9946644115
 H          2.2973404232        2.1110532936       -1.6536600166
 C          3.2931764782        0.3613900538       -1.2257986896
 O          3.0078076988       -0.7833919448       -1.9611145073
 C          4.6944774517        0.8514107832       -1.3769031193
 H          5.3623889004        0.0000666274       -1.4751609597
 H          4.9835587595        1.4435116648       -0.5114844799
 H          4.8157576238        1.4780187655       -2.2692855996
 C          1.1635183021        0.0639604755        0.7358651385
 H          1.9671408582       -0.6483032269        0.5045861550
 O          1.4837238320        0.7698439132        1.9165093187
 H          2.2732331914        1.2941308708        1.7370098043
 C         -0.1327961137       -0.7251490102        1.0023823694
 H         -0.2119229380       -0.8760092268        2.0875543395
 O         -0.1676620386       -1.9871019010        0.3483387089
 C         -1.5666903047        1.3320019756        1.3879244694
 H         -0.6989304385        1.4873297328        2.0325009658
 H         -2.4640221343        1.2127715683        2.0026571842
 O         -1.6736700679        2.5111238605        0.6158307391
 C          0.6798979968       -2.9790515233        0.8255991797
 H          0.7254927515       -2.9547405642        1.9318814276
 C          2.9173606807       -3.7445824756        0.6072661176
 H          3.0178298948       -3.8244974348        1.7029281746
 O          1.9622346995       -2.7524913809        0.2888025040
 C          0.1119237168       -4.3301356106        0.3735900352
 H         -0.0610481187       -4.2747443941       -0.7128417199
 O         -1.0888295140       -4.5506545421        1.0619695630
 H         -1.3184426465       -5.4819915512        0.9358306026
 C          1.1116964802       -5.4671434304        0.6585897974
 H          1.1940677016       -5.6036570989        1.7432969061
 O          0.6201538074       -6.6730607996        0.1399056190
 H          0.8217185909       -6.6707878204       -0.8069546828
 C          2.4784039474       -5.1103000710        0.0577310593
 H          3.2196765769       -5.8689343113        0.3629126286
 O          2.3273848434       -5.1148412223       -1.3374294404
 H          3.0281354594       -4.5431637657       -1.7066021241
 C          4.2626328743       -3.2838529102        0.0150474345
 H          5.0254634688       -4.0240906318        0.2738279639
 H          4.5312611593       -2.3232519669        0.4693043619
 O          4.2393651190       -3.1903518466       -1.3814719410
 H          3.7725579566       -2.3653896275       -1.6340930981
 C         -2.9434306927        2.7105560249        0.0132338289
 H         -3.2564590103        1.8080049130       -0.5240594905
 C         -3.8634937976        4.1334826644        1.7408699230
 H         -4.9074244511        4.4644448954        1.8112535581
 O         -3.9374513521        2.9353020668        0.9580173703
 C         -2.7770784495        3.8468189219       -1.0141329581
 H         -1.6962060535        3.9679586650       -1.1996071057
 O         -3.4243635011        3.4675443646       -2.1986024866
 H         -3.4534767366        4.2378912913       -2.7804565891
 C         -3.3338497171        5.1761115308       -0.4659688563
 H         -4.4127655845        5.2093511691       -0.6545719882
 O         -2.7665831590        6.2712561239       -1.1393123946
 H         -1.9172750597        6.4588610149       -0.7148361224
 C         -3.0632253377        5.2486494328        1.0453467925
 H         -3.4024493319        6.2188371879        1.4260070357
 O         -1.6787021265        5.2219698750        1.2913788059
 H         -1.3665172657        4.3123531279        1.1516291889
 C         -3.3427884922        3.8499547857        3.1493421836
 H         -2.2951794319        3.5620420362        3.1303858465
 H         -3.9236118890        3.0466743304        3.5938139166
 H         -3.4467684646        4.7452800709        3.7558142161
 H          2.0371745236       -0.8601945205       -2.0964092004
  72
  -125.09064902000000        1.5120671435832973E-005 !
 C          3.5423347393        2.0289684461        0.2168341860
 H          4.2312121904        2.7518545447        0.6798798517
 O          3.5025466030        2.1907542936       -1.1693574058
 H          3.2547746889        3.0999604613       -1.3738944509
 C          1.2962544298        1.3994829155        0.3575621444
 H          1.2380111567        1.4250862331       -0.7407500279
 O          2.2929506390        2.2962772442        0.8059666541
 C          4.0473720937        0.5963863036        0.5112011512
 H          4.2272737553        0.5063020731        1.5861013128
 N          5.2810178392        0.3237923931       -0.1868111944
 H          5.2363009784        0.6446899733       -1.1482098119
 C          6.4872167888        0.7098387481        0.4232895766
 O          7.3948572079        1.2425459938       -0.4799532945
 C          7.0132303479       -0.1433592640        1.5317908345
 H          7.7258018953       -0.8937197191        1.1630648179
 H          6.1881591852       -0.6697248330        2.0003457438
 H          7.5257813533        0.4591522323        2.2833579455
 C          2.9820759754       -0.4432982801        0.1257696720
 H          2.8588728233       -0.4390536551       -0.9682216107
 O          3.4360258229       -1.6920197429        0.5730425603
 H          2.8294262113       -2.3788472230        0.2567665799
 C          1.6457712450       -0.0335075434        0.7816023530
 H          1.7642868437       -0.0806407168        1.8744992305
 O          0.5409054593       -0.8223910311        0.3902096988
 C         -0.0650145261        1.8439085748        0.8885099371
 H         -0.0855341845        2.9377599706        0.9451713502
 H         -0.2493612149        1.4285491250        1.8866835099
 O         -1.0457040876        1.3758250865       -0.0229180973
 C          0.4436615665       -2.1333947201        0.8783310737
 H          1.0290593624       -2.2526476555        1.7995249912
 C          0.2229570910       -3.3510182605       -1.1960748997
 H          0.8225990091       -4.1354309258       -1.6710143138
 O          0.9964689512       -3.0513133343       -0.0341348546
 C         -1.0291876124       -2.4296137228        1.1914928904
 H         -1.6641428309       -1.6950803213        0.6745062927
 O         -1.2198514077       -2.3224788949        2.5817820451
 H         -2.0232026735       -2.8227565158        2.7857377418
 C         -1.3789967209       -3.8438919585        0.7040783468
 H         -0.7393352595       -4.5678139826        1.2212427224
 O         -2.7080279859       -4.1469829070        1.0296394339
 H         -3.2442368710       -3.8401541502        0.2795261699
 C         -1.1698291131       -3.9292575033       -0.8247857538
 H         -1.2148369076       -4.9872743770       -1.1115766985
 O         -2.2595389587       -3.3261292580       -1.4714566898
 H         -2.0648738471       -2.3739150111       -1.5842896462
 C          0.1647633537       -2.1844531006       -2.2119843137
 H         -0.1156871123       -2.6077623836       -3.1807855782
 H          1.1767812147       -1.7676290807       -2.2925063737
 O         -0.7759425518       -1.1743567435       -1.9553478578
 H         -0.5209921909       -0.6792905870       -1.1556312883
 C         -2.3516361210        1.5841409151        0.3800478331
 H         -2.5288942153        1.1820950616        1.3993141503
 C         -3.9201238120        3.3336064642        0.7157689422
 H         -4.2086681078        2.8356979866        1.6548204326
 O         -2.5897762976        2.9770460550        0.3815263662
 C         -3.2683037002        0.8488300508       -0.6124605270
 H         -2.9042475078        1.0713115666       -1.6276828386
 O         -3.1796654634       -0.5309771085       -0.3678101566
 H         -3.8651980636       -0.9582860431       -0.9011594753
 C         -4.7374884475        1.3012591749       -0.4765855239
 H         -5.1517685125        0.8653567895        0.4401020630
 O         -5.4928322283        0.7849225045       -1.5419447360
 H         -5.3948018732        1.3975741848       -2.2854009871
 C         -4.8271586887        2.8355615088       -0.4198345916
 H         -5.8670479862        3.1395004790       -0.2644091810
 O         -4.4255556822        3.3779231749       -1.6538651691
 H         -3.4596661328        3.4507774823       -1.6282281216
 C         -3.9773840873        4.8455713277        0.8794840867
 H         -4.9564743279        5.1372117311        1.2471524141
 H         -3.7973217029        5.3300453404       -0.0762281780
 H         -3.2159491412        5.1651316472        1.5843567889
 H          8.2543312899        0.8155726720       -0.3798557431
  72
  -125.09064526000000        1.5060628646482685E-005 !
 C          2.8351361194        2.3864143790        1.4000229926
 H          2.5305787843        2.6006785423        2.4334372728
 O          3.8683963893        3.2441659622        1.1057728455
 H          4.1650761624        3.0585215904        0.2038243033
 C          0.5746516859        1.9460239736        0.7349101706
 H         -0.0106358150        2.1143360476       -0.1775406676
 O          1.7725350592        2.6451953640        0.4952775349
 C          3.2268016611        0.9060011230        1.2550243004
 H          4.0952173160        0.6868154454        1.8871149349
 N          3.5872919849        0.6892244848       -0.1371669861
 H          2.8908084343        1.1437435640       -0.7254381555
 C          3.8415767539       -0.6262441642       -0.5611451770
 O          3.1353684884       -1.0422435703       -1.6842574255
 C          5.2196974332       -1.1776764636       -0.4328922048
 H          5.1926724957       -2.2639478837       -0.4911771422
 H          5.6461498328       -0.8780513798        0.5201658315
 H          5.8787711805       -0.8181717295       -1.2320378121
 C          2.0236245928        0.0528083492        1.7095128856
 H          2.2447409335       -1.0047105295        1.4995457956
 O          1.7383036354        0.2492814900        3.0771924805
 H          2.4902932478       -0.0525344617        3.5990026201
 C          0.7477705595        0.4241237617        0.9281868313
 H         -0.0960631207        0.0666746123        1.5348328843
 O          0.6950768293       -0.2063711634       -0.3444434047
 C         -0.2153294282        2.5303993709        1.9258629227
 H         -0.0838836921        3.6171233589        1.9363285177
 H          0.1415838317        2.1024186776        2.8658774973
 O         -1.5919463373        2.2004269772        1.8467751199
 C          0.1599053299       -1.4949356549       -0.3578039983
 H         -0.7206671485       -1.5316458458        0.3167731825
 C          0.9405195575       -3.7729202083       -0.0927610878
 H          1.0129699952       -4.2504274869        0.8950844028
 O          1.1510078104       -2.3767110792        0.1042894981
 C         -0.3098985447       -1.7911833522       -1.7913764036
 H          0.5276687705       -1.6492857957       -2.4853601014
 O         -1.2818267437       -0.8660330630       -2.1816311926
 H         -1.8767360234       -0.6684255704       -1.4377359940
 C         -0.7934262048       -3.2567857602       -1.9160756184
 H         -1.8805461661       -3.2494229811       -2.0589145949
 O         -0.2796488456       -3.9086834187       -3.0427515491
 H          0.6991260737       -3.8682179079       -2.9992684108
 C         -0.4684549617       -4.0825407745       -0.6473031990
 H         -1.1944216329       -3.8415322346        0.1403354422
 O         -0.5984214241       -5.4448572448       -0.9320562691
 H         -0.5040216511       -5.5293972667       -1.8985614407
 C          2.0993804181       -4.3394328013       -0.9411911579
 H          1.8813877134       -5.3859357398       -1.1683079439
 H          3.0120603276       -4.2916369054       -0.3370250432
 O          2.2911392266       -3.6749346251       -2.1628322646
 H          2.6627403942       -2.7871988905       -1.9832236560
 C         -2.4092109754        3.1373695767        1.1657754111
 H         -2.1351540562        4.1538961641        1.4893513202
 C         -3.1858766117        2.4435093344       -1.0052580854
 H         -4.0444631782        3.1236318271       -1.1140551899
 O         -2.1946169089        3.0906068562       -0.2090386992
 C         -3.8593830422        2.8724370874        1.6037399939
 H         -3.8348248473        2.7115339520        2.6915895959
 O         -4.5893080486        4.0304599557        1.2815345475
 H         -5.4700004330        3.9636817818        1.6682179414
 C         -4.4773274776        1.6006542914        0.9559781662
 H         -5.5012485784        1.8568828602        0.6533811486
 O         -4.5754643306        0.5507111006        1.8742039877
 H         -3.7798313194        0.0049313230        1.7786240681
 C         -3.6805440703        1.1743218772       -0.2978477924
 H         -4.3191906489        0.5908304383       -0.9668056303
 O         -2.6259980968        0.3115864238        0.0713846399
 H         -1.9989695476        0.8473148788        0.5938418956
 C         -2.5637523894        2.1727075095       -2.3670120048
 H         -2.1382417097        3.0952455941       -2.7500146712
 H         -3.3249479345        1.8162547027       -3.0542514484
 H         -1.7788868102        1.4255297748       -2.2943279940
 H          2.2513167705       -0.6483690976       -1.6203671544
  72
  -125.09064481000000        1.5053458667924269E-005 !
 C          2.8322805502        2.3852834899        1.4026366505
 H          2.5280340541        2.5972668861        2.4365918575
 O          3.8641056177        3.2450666785        1.1093100700
 H          4.1609756303        3.0614610944        0.2070246490
 C          0.5716570651        1.9432392040        0.7392425698
 H         -0.0145214374        2.1115921159       -0.1726058686
 O          1.7686618488        2.6438584664        0.4990010179
 C          3.2253349852        0.9055469951        1.2545824369
 H          4.0951720906        0.6862413190        1.8846927882
 N          3.5831425208        0.6916780570       -0.1387288649
 H          2.8880101918        1.1511726066       -0.7246863729
 C          3.8307452608       -0.6232942950       -0.5680375928
 O          3.1274697894       -1.0285937623       -1.6968729958
 C          5.2031599935       -1.1865873999       -0.4338198806
 H          5.1660403034       -2.2732601847       -0.4782050843
 H          5.6326534677       -0.8791647460        0.5151677034
 H          5.8650358118       -0.8440912189       -1.2378195738
 C          2.0237747373        0.0507965405        1.7105645997
 H          2.2458039625       -1.0062544170        1.4997018497
 O          1.7407590579        0.2463544563        3.0789012977
 H          2.4938268118       -0.0553889857        3.5991930790
 C          0.7462150268        0.4213461206        0.9316369042
 H         -0.0963325265        0.0630444366        1.5397149512
 O          0.6913242327       -0.2088249143       -0.3409856273
 C         -0.2176524976        2.5267723067        1.9311328451
 H         -0.0825582773        3.6130629015        1.9445823324
 H          0.1368221183        2.0952664151        2.8704427520
 O         -1.5953112086        2.2019717261        1.8502432053
 C          0.1629545133       -1.5003438800       -0.3523268040
 H         -0.7135672504       -1.5417724353        0.3273850270
 C          0.9593898708       -3.7744434417       -0.0991855761
 H          1.0456710369       -4.2558832936        0.8855930458
 O          1.1609244248       -2.3776981917        0.1034060941
 C         -0.3139609510       -1.7982196191       -1.7831809247
 H          0.5197113910       -1.6547268353       -2.4814635661
 O         -1.2899399609       -0.8756452295       -2.1691918878
 H         -1.8818138383       -0.6784924924       -1.4227485086
 C         -0.7949149534       -3.2648208284       -1.9044140125
 H         -1.8836208838       -3.2605037040       -2.0349762940
 O         -0.2917571635       -3.9135239127       -3.0378055988
 H          0.6870507460       -3.8668774009       -3.0067105875
 C         -0.4528819900       -4.0914904788       -0.6405294074
 H         -1.1725196783       -3.8564633043        0.1547083173
 O         -0.5772281049       -5.4539425439       -0.9270613714
 H         -0.4943693209       -5.5352242128       -1.8949974971
 C          2.1129187168       -4.3296891654       -0.9622995922
 H          1.8993123857       -5.3768614058       -1.1906338695
 H          3.0317215260       -4.2780677663       -0.3678190390
 O          2.2872116716       -3.6598745271       -2.1836124798
 H          2.6579441780       -2.7716352628       -2.0047285905
 C         -2.4067878893        3.1400571717        1.1637911608
 H         -2.1294525823        4.1564786688        1.4848670335
 C         -3.1787737150        2.4404672997       -1.0072080720
 H         -4.0348266445        3.1228128886       -1.1221759202
 O         -2.1885724723        3.0882191555       -0.2102165298
 C         -3.8593030200        2.8823342385        1.5980349300
 H         -3.8391834838        2.7255428839        2.6865896079
 O         -4.5833267395        4.0421606181        1.2690225161
 H         -5.4659789315        3.9798587625        1.6520447913
 C         -4.4801864556        1.6108637595        0.9526843755
 H         -5.5015967760        1.8703975156        0.6448260599
 O         -4.5865590300        0.5652532005        1.8747377916
 H         -3.7935349549        0.0149883048        1.7838528022
 C         -3.6803334709        1.1759997665       -0.2962310310
 H         -4.3187020978        0.5923547581       -0.9652563170
 O         -2.6309247629        0.3103582282        0.0806536316
 H         -2.0044153968        0.8450003854        0.6047010137
 C         -2.5522680667        2.1620137942       -2.3653638476
 H         -3.3124423178        1.8078522521       -3.0548212688
 H         -1.7719069285        1.4105981154       -2.2873650617
 H         -2.1201531163        3.0811685476       -2.7492238758
 H          2.2437561392       -0.6340454237       -1.6326283919
  72
  -125.09064427000000        1.5044859199255466E-005 !
 C          2.9954550900        2.4289654294        0.8981626594
 H          2.5981281466        2.9238737972        1.7946534164
 O          3.8529901798        3.3234990966        0.2960423950
 H          4.2373285257        2.8887668414       -0.4778016683
 C          0.9101308856        1.3389489022        0.5143659105
 H          0.2867613252        1.1041034463       -0.3544352933
 O          1.9522838841        2.1322776323       -0.0149250893
 C          3.6925309868        1.1141789561        1.2896281230
 H          4.5257489127        1.3237422090        1.9694589670
 N          4.2313726406        0.5262261819        0.0876653924
 H          3.5071117948        0.4299224004       -0.6179345518
 C          4.9882968296       -0.6623377430        0.2127082065
 O          5.7205662570       -0.7470018550        1.3844655028
 C          5.6280711497       -1.1690777057       -1.0404012272
 H          4.9499610389       -1.0571064130       -1.8821308845
 H          5.8799282277       -2.2239915640       -0.9324447333
 H          6.5549827123       -0.6288183501       -1.2822961990
 C          2.6614444616        0.2129826158        2.0071972664
 H          3.1155782142       -0.7788677691        2.1478984040
 O          2.2627645939        0.7668699232        3.2377784477
 H          3.0225753609        0.7755661368        3.8310824517
 C          1.4082011827        0.0223181825        1.1395838810
 H          0.6084379604       -0.3727777542        1.7746460429
 O          1.7634064308       -0.9559198055        0.1666671888
 C          0.0201367334        2.1107403320        1.5136686089
 H          0.0935749534        3.1825951386        1.2899119388
 H          0.3401130700        1.9265873659        2.5406482578
 O         -1.3301474382        1.6939071589        1.4591085332
 C          0.7227283638       -1.5021057763       -0.5854562225
 H          0.5070199621       -0.8663884345       -1.4740891779
 C         -1.5175640993       -2.1793337160       -0.5474770407
 H         -1.7453744743       -1.5076734814       -1.3908521289
 O         -0.4318340107       -1.6392444599        0.1823637112
 C          1.2043942180       -2.8831629740       -1.0611027994
 H          1.3580944472       -3.5020782166       -0.1639416942
 O          2.3858714137       -2.7966230037       -1.8162368127
 H          3.0342337212       -2.3220471508       -1.2801378407
 C          0.1081786620       -3.5143114021       -1.9228507038
 H         -0.0349793311       -2.8930408999       -2.8210296904
 O          0.4449549049       -4.8295852264       -2.2888180065
 H          1.3533343242       -4.8106487454       -2.6144872919
 C         -1.2001480612       -3.5710762560       -1.1138670511
 H         -2.0172134463       -3.8684095506       -1.7918378551
 O         -1.0873881471       -4.4947673601       -0.0673272404
 H         -0.6544217861       -5.2777267625       -0.4371236297
 C         -2.6934240847       -2.2015295236        0.4299635032
 H         -2.3952063602       -2.7836982091        1.3078976143
 H         -3.5629173235       -2.6665468899       -0.0373615045
 O         -3.0697964551       -0.8973720990        0.7927915893
 H         -2.2691103362       -0.4121680132        1.0481145735
 C         -2.0847265270        2.2094474668        0.4157724435
 H         -1.7535192527        3.2344646029        0.1555622446
 C         -2.6876387132        1.7807022288       -1.8331549315
 H         -2.4627046060        2.8387502122       -2.0481680150
 O         -1.9249974949        1.3699611138       -0.7110039968
 C         -3.5494835707        2.2841376270        0.8772729136
 H         -3.8115664312        1.3216367645        1.3408452982
 O         -3.6364612452        3.3202325531        1.8229026634
 H         -4.5738126745        3.4445637434        2.0221741648
 C         -4.5062240613        2.5644151279       -0.3005462640
 H         -4.4034734185        3.6185228015       -0.5855721496
 O         -5.8368385830        2.3819338847        0.1117674438
 H         -6.0424110565        1.4439272971       -0.0261231648
 C         -4.1842438757        1.6573443816       -1.5018201712
 H         -4.7813200646        1.9769473538       -2.3638173884
 O         -4.5752931013        0.3396117763       -1.2347048999
 H         -3.9808483874       -0.0459204910       -0.5565969350
 C         -2.3019517752        0.9126892150       -3.0231120544
 H         -2.7036110569       -0.0889049115       -2.8916096685
 H         -1.2200105519        0.8617002027       -3.1072641727
 H         -2.7129881833        1.3384783242       -3.9336897883
 H          6.6637842281       -0.8223541077        1.1891864726
  72
  -125.09064388000000        1.5038651527301826E-005 !
 C          2.9904023991        2.4273353750        0.8889037646
 H          2.5954518560        2.9253713096        1.7847198017
 O          3.8435282158        3.3210894583        0.2794160544
 H          4.2253815399        2.8838964888       -0.4942691914
 C          0.9059526279        1.3312806365        0.5183395779
 H          0.2792452723        1.0920638102       -0.3467388579
 O          1.9443993540        2.1243054743       -0.0187316285
 C          3.6919931351        1.1159688012        1.2836439665
 H          4.5268843799        1.3306452823        1.9598213261
 N          4.2284949059        0.5240828970        0.0825408572
 H          3.5021838099        0.4220297843       -0.6201156363
 C          4.9893612593       -0.6616445278        0.2108421903
 O          5.7272675028       -0.7378250453        1.3794627597
 C          5.6239874730       -1.1743904743       -1.0423597172
 H          5.8784229708       -2.2282008576       -0.9292353984
 H          6.5487910075       -0.6339307504       -1.2916761308
 H          4.9416941806       -1.0686430447       -1.8815428233
 C          2.6656450321        0.2150250242        2.0082579472
 H          3.1230272590       -0.7749856503        2.1515374613
 O          2.2698167280        0.7729312942        3.2378588452
 H          3.0321953968        0.7877753518        3.8278009470
 C          1.4097848004        0.0179771586        1.1458330629
 H          0.6132098454       -0.3776717942        1.7846595719
 O          1.7651254562       -0.9623494331        0.1749762203
 C          0.0184579548        2.1056923786        1.5180130638
 H          0.0951970213        3.1773301524        1.2942260759
 H          0.3381046339        1.9205512924        2.5449018294
 O         -1.3333725065        1.6934826617        1.4637331418
 C          0.7253965487       -1.5068128473       -0.5795384093
 H          0.5150142766       -0.8722739727       -1.4703525742
 C         -1.5174076373       -2.1759354686       -0.5481454004
 H         -1.7414680371       -1.5034966203       -1.3919953364
 O         -0.4322755800       -1.6385954711        0.1846082611
 C          1.2037118802       -2.8906222854       -1.0506200170
 H          1.3501262661       -3.5091539262       -0.1519667557
 O          2.3890934251       -2.8106454899       -1.8002722881
 H          3.0369308076       -2.3376020794       -1.2621884929
 C          0.1089717515       -3.5181086825       -1.9167852204
 H         -0.0276709002       -2.8967985350       -2.8159375488
 O          0.4417517508       -4.8350613058       -2.2805718320
 H          1.3520432917       -4.8202475888       -2.6010649027
 C         -1.2030671957       -3.5688797437       -1.1134881012
 H         -2.0183558951       -3.8625802939       -1.7951571995
 O         -1.0989146868       -4.4933809256       -0.0667622684
 H         -0.6680121393       -5.2782096589       -0.4350472989
 C         -2.6956942565       -2.1952195134        0.4263278707
 H         -2.4011575320       -2.7792002881        1.3043155727
 H         -3.5651749693       -2.6573723713       -0.0438093869
 O         -3.0693793221       -0.8904137738        0.7893556895
 H         -2.2684070642       -0.4077404741        1.0485840953
 C         -2.0857776606        2.2121794469        0.4205086609
 H         -1.7555374173        3.2388950719        0.1656662397
 C         -2.6798936245        1.7924387043       -1.8323712200
 H         -2.4565240234        2.8519533525       -2.0416266307
 O         -1.9209484606        1.3778258141       -0.7093357102
 C         -3.5522714124        2.2822593503        0.8771917509
 H         -3.8141243973        1.3175797494        1.3361475343
 O         -3.6449436427        3.3145129277        1.8264651893
 H         -4.5831678549        3.4349194045        2.0239163187
 C         -4.5056686891        2.5649371685       -0.3029251229
 H         -4.4050505966        3.6206464040       -0.5827104122
 O         -5.8371382409        2.3765090155        0.1038422978
 H         -6.0392145374        1.4384877380       -0.0389735295
 C         -4.1773358639        1.6639473081       -1.5071331047
 H         -4.7723824271        1.9855505995       -2.3697458494
 O         -4.5653422731        0.3438492315       -1.2468642525
 H         -3.9736590988       -0.0409869445       -0.5659946028
 C         -2.2869267859        0.9311803690       -3.0247567410
 H         -2.6830767769       -0.0730452955       -2.8977074663
 H         -1.2046061237        0.8864464960       -3.1067371357
 H         -2.6983653452        1.3577727522       -3.9346645747
 H          6.6702210340       -0.8065966981        1.1805903500
  72
  -125.09064337000000        1.5030537666864978E-005 !
 C          2.9904870359        2.4264877083        0.8957172477
 H          2.5945873198        2.9225713123        1.7921557571
 O          3.8449702927        3.3211434009        0.2894532211
 H          4.2277838942        2.8852793171       -0.4845318688
 C          0.9062762113        1.3318870604        0.5197860369
 H          0.2811515352        1.0939511844       -0.3468349369
 O          1.9457263220        2.1257310811       -0.0141345978
 C          3.6907723000        1.1135296603        1.2875641454
 H          4.5260036958        1.3254566793        1.9641472848
 N          4.2261538691        0.5251040500        0.0844853044
 H          3.4994956701        0.4253199550       -0.6180656714
 C          4.9896438882       -0.6595079887        0.2064080772
 O          5.7281965229       -0.7400924280        1.3742884829
 C          5.6258961298       -1.1618490200       -1.0504409188
 H          6.5445229713       -0.6113810720       -1.3007217989
 H          4.9401297739       -1.0600269103       -1.8872785680
 H          5.8906681607       -2.2134631525       -0.9418210547
 C          2.6632574680        0.2125425509        2.0105969868
 H          3.1193836560       -0.7782070092        2.1527523439
 O          2.2670209055        0.7692123500        3.2407130675
 H          3.0288368908        0.7821703578        3.8314894285
 C          1.4079626240        0.0174815859        1.1468848474
 H          0.6103147864       -0.3776321358        1.7847132799
 O          1.7635720075       -0.9627236668        0.1761771377
 C          0.0176674706        2.1055957958        1.5190038910
 H          0.0945048855        3.1772668622        1.2955562328
 H          0.3364266013        1.9202929158        2.5461549965
 O         -1.3339324190        1.6933794698        1.4630795215
 C          0.7249706518       -1.5084027808       -0.5791045976
 H          0.5165696860       -0.8755262147       -1.4715634723
 C         -1.5178554862       -2.1776806092       -0.5518441690
 H         -1.7401127977       -1.5067305017       -1.3973494834
 O         -0.4344793807       -1.6386923725        0.1825103030
 C          1.2043807316       -2.8932656785       -1.0460866182
 H          1.3479096475       -3.5097222303       -0.1455164672
 O          2.3922244943       -2.8149167093       -1.7918918305
 H          3.0382296378       -2.3401612458       -1.2529888509
 C          0.1120670415       -3.5222223654       -1.9142150821
 H         -0.0221854279       -2.9026645950       -2.8149471850
 O          0.4458946739       -4.8398104903       -2.2746007773
 H          1.3576177550       -4.8258210414       -2.5910262423
 C         -1.2021412051       -3.5714654455       -1.1143928897
 H         -2.0157674873       -3.8659377067       -1.7976918844
 O         -1.1007975855       -4.4944209524       -0.0660661697
 H         -0.6695201969       -5.2799629239       -0.4323108057
 C         -2.6985009941       -2.1963067777        0.4198956185
 H         -2.4066103377       -2.7802583366        1.2987404983
 H         -3.5671758782       -2.6580142039       -0.0522313577
 O         -3.0724743140       -0.8913554275        0.7822266851
 H         -2.2714889432       -0.4087947212        1.0415774440
 C         -2.0852381959        2.2123847240        0.4191196748
 H         -1.7537544554        3.2386303177        0.1640343665
 C         -2.6782754457        1.7925904801       -1.8340333213
 H         -2.4528693839        2.8515901009       -2.0437495461
 O         -1.9207639049        1.3773953645       -0.7101967614
 C         -3.5519007063        2.2844036056        0.8749344171
 H         -3.8154210134        1.3201481659        1.3338663001
 O         -3.6435523319        3.3169343605        1.8239572188
 H         -4.5816261900        3.4387053129        2.0212533409
 C         -4.5043138405        2.5683714064       -0.3056435322
 H         -4.4018516419        3.6239032334       -0.5853983387
 O         -5.8363308456        2.3819436221        0.1002480920
 H         -6.0398626129        1.4442898526       -0.0429971521
 C         -4.1762314433        1.6672197500       -1.5098232772
 H         -4.7698555286        1.9905611986       -2.3727900180
 O         -4.5675743891        0.3479969126       -1.2504616678
 H         -3.9765382075       -0.0392807318       -0.5703520078
 C         -2.2860346836        0.9295399430       -3.0254209370
 H         -2.6861388168       -0.0732401621       -2.8989948395
 H         -1.2036977037        0.8809241273       -3.1051374796
 H         -2.6940422155        1.3574758606       -3.9362136118
 H          6.6715044094       -0.8036129164        1.1748550661
  72
  -125.09061929000001        1.4652378016943531E-005 !
 C         -0.1446827915        0.4051966959       -1.4255723562
 H         -0.2868881877        1.0810714257       -2.2786641247
 O          0.2394366844       -0.8183930110       -1.9831262547
 H          0.0929914716       -1.5151238046       -1.3131582545
 C         -1.4119525592        0.0123181645        0.5897247131
 H         -2.2703479757       -0.6562900990        0.7176979132
 O         -1.3876050005        0.3107044674       -0.7957690077
 C          0.9173306088        1.0064341795       -0.4719223272
 H          0.4938692275        1.9541872130       -0.1256461162
 N          2.1640795397        1.2966659823       -1.1707198283
 H          2.5520725389        2.1937624552       -0.9187788617
 C          3.1759682364        0.3145936281       -1.2703720461
 O          2.9141464006       -0.7588810411       -2.1077088545
 C          4.5905200951        0.7958751261       -1.3159453117
 H          5.2488816681       -0.0592372582       -1.4442782644
 H          4.8556993828        1.3128859987       -0.3937187404
 H          4.7672918386        1.4811931499       -2.1535929595
 C          1.1155959197        0.0780223379        0.7470037000
 H          1.9316762382       -0.6189371843        0.5037346923
 O          1.4405764824        0.8097970252        1.9139640060
 H          2.2805892566        1.2596850013        1.7706862749
 C         -0.1550718159       -0.7345441207        1.0577397394
 H         -0.2038966163       -0.8710519959        2.1469393495
 O         -0.1800092080       -2.0054275141        0.4232345478
 C         -1.6203246608        1.3068378250        1.4379246466
 H         -0.7703466327        1.4542687337        2.1074859832
 H         -2.5388273215        1.2190346272        2.0256071991
 O         -1.6785983794        2.4747314392        0.6431711396
 C          0.7123730924       -2.9680117410        0.8782517811
 H          0.8137961954       -2.9188151511        1.9801244549
 C          2.9508824402       -3.6944189436        0.5444328431
 H          3.1182999998       -3.7565181358        1.6332740674
 O          1.9602459824       -2.7239948368        0.2712289760
 C          0.1494967942       -4.3395313409        0.4857400655
 H         -0.0902906890       -4.3079160021       -0.5887275157
 O         -1.0023919861       -4.5700299529        1.2506023059
 H         -1.2248092278       -5.5060457637        1.1490048151
 C          1.1876889709       -5.4512424716        0.7293363427
 H          1.3370636768       -5.5677276713        1.8092214616
 O          0.6921445733       -6.6755881136        0.2600851226
 H          0.8364501811       -6.6846965726       -0.6971355050
 C          2.5078285349       -5.0766499267        0.0418167536
 H          3.2819433848       -5.8151178720        0.3132572006
 O          2.2731772377       -5.1071180379       -1.3410373758
 H          2.9391553254       -4.5287855865       -1.7610703043
 C          4.2500910989       -3.2190499881       -0.1334139760
 H          5.0416520194       -3.9377373144        0.0989866428
 H          4.5227802912       -2.2434387243        0.2851103584
 O          4.1478235970       -3.1580718499       -1.5274646058
 H          3.6666644327       -2.3388056100       -1.7763931983
 C         -2.9387071939        2.7136751546        0.0335989743
 H         -3.2954222893        1.8090959039       -0.4717063814
 C         -3.7786894725        4.2361613052        1.7150221754
 H         -4.8037223452        4.6236109029        1.7763523775
 O         -3.9175079728        3.0187451933        0.9715627029
 C         -2.7220344100        3.8045802933       -1.0327681029
 H         -1.6384058575        3.8616584900       -1.2322225872
 O         -3.4013784350        3.4192624450       -2.1967187435
 H         -3.3810307699        4.1626952260       -2.8128877595
 C         -3.2030397915        5.1791520716       -0.5251600811
 H         -4.2788937473        5.2645377314       -0.7121999191
 O         -2.5809238877        6.2206189131       -1.2337425127
 H         -1.7191827429        6.3724749080       -0.8209438978
 C         -2.9234048634        5.2852726642        0.9825905744
 H         -3.2097198632        6.2834094768        1.3328799911
 O         -1.5409076408        5.1935299071        1.2268583505
 H         -1.2806459553        4.2635431456        1.1178023931
 C         -3.2691395871        3.9689809194        3.1310621800
 H         -2.2376952876        3.6279644949        3.1197258252
 H         -3.8882683342        3.2091334073        3.5995195501
 H         -3.3256439315        4.8857247956        3.7114098815
 H          1.9427926190       -0.8240671242       -2.2352965582
  72
  -125.09060395000000        1.4416450283971665E-005 !
 C          3.5306897751        1.4916823567       -0.7608015520
 H          4.2835141900        2.2915553018       -0.8047633580
 O          4.1151713525        0.4058331696       -1.3990443144
 H          3.4406386515       -0.2811779642       -1.5288763806
 C          1.1401701324        1.4711159413       -1.1637203853
 H          0.6649000241        1.3100517643       -2.1403629369
 O          2.4217766781        2.0129657686       -1.4482373622
 C          3.1961544052        1.1778918075        0.7095846847
 H          2.8572063503        2.1030559871        1.1936869007
 N          4.3634698508        0.6774595272        1.3932090610
 H          5.1466445685        0.4770462087        0.7900922915
 C          4.6878377236        1.1735219818        2.6622708872
 O          3.5332871926        1.2868907019        3.4652731135
 C          5.9098389133        0.6066907968        3.3137299394
 H          5.7719537001       -0.4341473244        3.6347069099
 H          6.1780031299        1.1983733254        4.1890719136
 H          6.7413229890        0.6365863070        2.6150259312
 C          2.0578586177        0.1338266101        0.8111622974
 H          2.5268032194       -0.8599628783        0.8937329748
 O          1.2463280927        0.3828103518        1.9328711389
 H          1.8429986514        0.6041887824        2.6666902497
 C          1.1676174644        0.1195947186       -0.4437101621
 H          0.1441605329       -0.1189565216       -0.1450412120
 O          1.6374084511       -0.8539956679       -1.3803690562
 C          0.3404219423        2.5244520681       -0.3643272149
 H          0.1943592374        3.4063291674       -0.9997160570
 H          0.9079203570        2.8159599171        0.5205254563
 O         -0.8874919170        2.0651565736        0.1497679471
 C          0.9296190488       -2.0391390413       -1.4721220180
 H          1.4694979849       -2.6185885590       -2.2420113005
 C         -1.1129384729       -2.9187324452       -2.2419989092
 H         -0.5801306312       -3.4737234194       -3.0333396542
 O         -0.3809620425       -1.7580400058       -1.9082600601
 C          0.8813167210       -2.8715762047       -0.1799793672
 H          0.3348896515       -2.3080023863        0.5928889539
 O          2.1915274423       -3.1430567920        0.2430411594
 H          2.1450662121       -3.9133770602        0.8270694633
 C          0.1246809684       -4.1822839550       -0.4626869309
 H          0.7007751848       -4.7755678486       -1.1825625029
 O          0.0379585967       -4.9512818482        0.7065518339
 H         -0.6926581575       -4.5884918291        1.2275398844
 C         -1.2651474781       -3.8575363437       -1.0300160612
 H         -1.7463861384       -4.7898343277       -1.3714606270
 O         -2.0094072718       -3.2943292361        0.0210510650
 H         -2.7545343507       -2.8101440030       -0.3824925408
 C         -2.4681611955       -2.4531690540       -2.7990772275
 H         -3.0319985252       -3.3240517039       -3.1434249738
 H         -2.2776772087       -1.7907071498       -3.6516941740
 O         -3.2688710285       -1.8141061908       -1.8399556592
 H         -2.8178855166       -1.0031473378       -1.5430293219
 C         -1.9312949139        1.8021934640       -0.7680033529
 H         -1.5435589416        1.7465516187       -1.7922664001
 C         -3.0727089281        0.3478254072        0.7814433990
 H         -3.9206894038       -0.3173990201        0.5744927468
 O         -2.4796645498        0.5451343314       -0.5176944630
 C         -2.9917022952        2.9396525731       -0.7133374233
 H         -2.5071320959        3.8324294540       -0.3016453944
 O         -3.4012471350        3.3047965229       -2.0031617756
 H         -4.0592019540        2.6767401940       -2.3239790537
 C         -4.1664091604        2.5327783745        0.2006490881
 H         -4.8917092325        1.9553604340       -0.3871570969
 O         -4.8571185878        3.6436215862        0.6961853760
 H         -4.3416159651        3.9984033318        1.4341268005
 C         -3.6385760454        1.6581101307        1.3578906309
 H         -4.4831141197        1.4151047708        2.0138552306
 O         -2.7515101465        2.3911673784        2.1600888045
 H         -1.8781000337        2.3877349230        1.7374834270
 C         -2.1104859149       -0.3468934976        1.7406606922
 H         -1.1885291052        0.2170276313        1.8562375012
 H         -1.8740729266       -1.3377512184        1.3630997059
 H         -2.5880393017       -0.4437576024        2.7117078609
 H          3.8165454971        1.3753671622        4.3791381516
  72
  -125.09049806000000        1.2888271137413243E-005 !
 C          3.3859631187        2.3150027969        0.4140892862
 H          3.4279207910        3.2669958006        0.9637554360
 O          4.4334693185        2.2228306662       -0.5077822904
 H          4.3987985808        2.9851675622       -1.0975536240
 C          1.8234890546        1.1740336110       -0.9752579753
 H          2.4981917723        1.1034647824       -1.8417044425
 O          2.1338405081        2.3299876812       -0.2142609014
 C          3.5195780680        1.1497695320        1.4122500736
 H          2.7281788639        1.2482932646        2.1626910332
 N          4.7862265078        1.2514019512        2.0721448128
 H          5.5782403137        1.1487348519        1.4478122062
 C          4.9717319207        0.8414130300        3.3995775918
 O          4.1292837195       -0.1103987698        3.9308605884
 C          6.3850032621        0.8353410377        3.8880786240
 H          6.8422070710        1.8088481368        3.7270058319
 H          6.9979608812        0.0796863928        3.3767577792
 H          6.3888885297        0.6085519607        4.9502147093
 C          3.3022988857       -0.1584110463        0.6239610021
 H          4.1183281339       -0.2793638758       -0.1046944378
 O          3.2942340194       -1.2434349494        1.5231011648
 H          2.8625497483       -2.0046510030        1.1025955142
 C          1.9739606031       -0.1118488559       -0.1469559782
 H          1.1551179547       -0.1354357061        0.5752012987
 O          2.0026202537       -1.2715086870       -0.9853303397
 C          0.3889109591        1.3770750395       -1.4767768396
 H          0.2006450016        0.7370644755       -2.3426661958
 H          0.2817770999        2.4288065838       -1.7608632103
 O         -0.5380295169        1.0646290915       -0.4432793590
 C          0.9011790458       -2.0947839843       -1.1127731284
 H          1.3007778640       -3.0002379877       -1.6059864297
 C         -1.1520354696       -2.3077253657       -2.2698807383
 H         -0.8060232392       -3.2691169182       -2.6886334399
 O         -0.0480302412       -1.4849066781       -1.9641192363
 C          0.2695187468       -2.5387219487        0.2210909621
 H         -0.0234120389       -1.6569763950        0.8119667909
 O          1.2459561666       -3.2793540069        0.9114351493
 H          0.8104432148       -3.7247356258        1.6509871544
 C         -1.0064530757       -3.3656014165       -0.0238394456
 H         -0.7371134900       -4.3338865283       -0.4600147599
 O         -1.6393166243       -3.6431587905        1.1979916411
 H         -2.1716749349       -2.8700229973        1.4328879558
 C         -1.9263402494       -2.5770077434       -0.9736471110
 H         -2.8439660258       -3.1411304284       -1.1707153818
 O         -2.3034381422       -1.3681169613       -0.3591118938
 H         -1.6473336721       -0.6872139290       -0.6049690864
 C         -2.0002615939       -1.5544806555       -3.3062299347
 H         -1.3652413432       -1.3292729817       -4.1721183099
 H         -2.3396905301       -0.6136957861       -2.8691410727
 O         -3.1504128825       -2.2645691779       -3.6756583989
 H         -2.8978441661       -3.0706938567       -4.1394225905
 C         -1.7198889028        1.7877832728       -0.4663990678
 H         -1.5270399383        2.8670178104       -0.6213478162
 C         -3.7935012010        1.8486057166       -1.6434727062
 H         -3.7022383029        2.9455048016       -1.7071443077
 O         -2.4965062399        1.2840765076       -1.5341504605
 C         -2.4138442807        1.6078874755        0.8937112563
 H         -2.4018488328        0.5362713167        1.1485398336
 O         -1.6909948765        2.3384831906        1.8468406036
 H         -2.2334351467        2.3844398647        2.6460085256
 C         -3.8792664785        2.0860554174        0.8460928760
 H         -3.8880790499        3.1817949199        0.8086173854
 O         -4.5359464053        1.7103437111        2.0299158927
 H         -4.9055965475        0.8273828991        1.8738366357
 C         -4.6006535944        1.5022587895       -0.3828768113
 H         -5.6032936370        1.9396027734       -0.4494873911
 O         -4.7922014966        0.1233721587       -0.2149541883
 H         -3.9627410837       -0.3479843902       -0.4143553970
 C         -4.4442044947        1.2988211003       -2.9050714434
 H         -5.3948398754        1.7972444553       -3.0691474400
 H         -4.6175369255        0.2309315478       -2.8023137344
 H         -3.7958470554        1.4713111223       -3.7590215624
 H          3.7268414204       -0.6341272623        3.2161318473
  72
  -125.09044416000000        1.2173737672636933E-005 !
 C          3.1035462448        1.5335187955       -0.8200939850
 H          4.0136785066        2.1428454835       -0.7305176909
 O          3.5189723600        0.3265517536       -1.3822713097
 H          2.7422314350       -0.1113544492       -1.7720762530
 C          0.8435986743        2.0300399641       -1.5270640635
 H          0.4539427789        2.0243954801       -2.5518745416
 O          2.2457040507        2.2594755216       -1.6449321107
 C          2.5142861560        1.2994217431        0.5877745170
 H          2.3009842739        2.2701938876        1.0521100041
 N          3.5262845508        0.6235851785        1.3662465485
 H          4.0766916227       -0.0010977844        0.7868843646
 C          3.1983502990        0.0562603073        2.6129937858
 O          2.3072300186        0.8077427630        3.3726042134
 C          4.3086685426       -0.6201464162        3.3476343806
 H          3.8982339288       -1.2232885019        4.1560016109
 H          5.0145136444        0.0984645997        3.7861572951
 H          4.8629290222       -1.2677005198        2.6744468266
 C          1.1949482602        0.4959959861        0.4846394519
 H          1.4505327740       -0.5710589121        0.5745665061
 O          0.2872181154        0.8495080329        1.5039362138
 H          0.7822835872        0.8308446476        2.3439407159
 C          0.5004523180        0.6884995053       -0.8771828314
 H         -0.5819997286        0.6590135223       -0.7290668982
 O          0.8852720422       -0.3663683659       -1.7612115750
 C          0.2198686940        3.2410019038       -0.7891359748
 H          0.7622439572        4.1238466182       -1.1402416338
 H          0.3624835328        3.1544633807        0.2878273083
 O         -1.1324169844        3.5028532090       -1.1137185339
 C          0.0300579984       -1.4589397883       -1.8061544566
 H         -0.9106015676       -1.1988718225       -2.3319105862
 C         -1.0395899119       -3.0278175171       -0.3758316692
 H         -1.9913087606       -2.9165455392       -0.9202286849
 O         -0.2693099235       -1.8480363582       -0.4861470920
 C          0.7542521046       -2.5722856921       -2.5765133969
 H          1.7537429014       -2.6934357184       -2.1267666254
 O          0.8545771444       -2.1868893206       -3.9181152731
 H          1.1196378106       -2.9694633014       -4.4213793246
 C         -0.0006787955       -3.9112823443       -2.4588954034
 H         -0.9416606538       -3.8376963016       -3.0162599777
 O          0.7422497247       -4.9323704328       -3.0676551240
 H          1.4314046588       -5.1919783864       -2.4400753070
 C         -0.2825494523       -4.2196463211       -0.9815826866
 H         -0.9182324996       -5.1185700137       -0.9111661668
 O          0.9563055682       -4.4547868105       -0.3608291581
 H          0.8481672496       -4.2819214666        0.5906986091
 C         -1.3226727522       -3.2044222161        1.1258674462
 H         -1.8357744369       -4.1531557833        1.2953916380
 H         -1.9576819983       -2.3802002132        1.4709255596
 O         -0.1292597722       -3.2510878166        1.8706134584
 H          0.2917012230       -2.3855983968        1.7903528250
 C         -2.1639461944        2.9824071038       -0.3536593932
 H         -3.0425505791        3.5808702069       -0.6540822517
 C         -3.5829497212        1.0909036032       -0.1911801308
 H         -4.4233782902        1.7491378448       -0.4673178424
 O         -2.3833578529        1.6294450969       -0.7134362688
 C         -2.0149139636        3.0874748653        1.1767969477
 H         -1.1299664382        2.5186354994        1.4992353043
 O         -1.8807430210        4.4385065199        1.5374872940
 H         -2.1002416007        4.5038897620        2.4772056658
 C         -3.2450648797        2.4657400129        1.8690118082
 H         -4.1185829699        3.0997623893        1.6761746213
 O         -3.0481061993        2.4602329283        3.2618549838
 H         -2.5870208976        1.6351253957        3.4770689310
 C         -3.4995595839        1.0408855441        1.3452761566
 H         -4.4451405065        0.6680311199        1.7545034734
 O         -2.5177154684        0.1550548082        1.8192511121
 H         -1.6491317642        0.3859521232        1.4429593152
 C         -3.7771341908       -0.2912947156       -0.7959606545
 H         -4.7384931894       -0.6958321736       -0.4937368559
 H         -2.9865346496       -0.9476141282       -0.4458145034
 H         -3.7340793756       -0.2234151539       -1.8788579874
 H          2.7687667442        1.3266667494        4.0480444614
  72
  -125.09043471000000        1.2052607666872044E-005 !
 C          3.0873516495        1.5375941088       -0.8582640028
 H          3.9943648055        2.1537934616       -0.7857114563
 O          3.5062235866        0.3248868105       -1.4054048812
 H          2.7285769999       -0.1256332559       -1.7784867728
 C          0.8186057390        2.0085043954       -1.5565037422
 H          0.4230840436        1.9807257638       -2.5787518735
 O          2.2183604972        2.2459971613       -1.6866816113
 C          2.5115144158        1.3217615851        0.5579301250
 H          2.3007352372        2.2990304169        1.0098312450
 N          3.5316371398        0.6587547578        1.3372121341
 H          4.0802039016        0.0295131528        0.7609575958
 C          3.2116893573        0.1030473889        2.5911506389
 O          2.3290811957        0.8636220666        3.3512995697
 C          4.3243536129       -0.5734284202        3.3220474630
 H          4.8667233320       -1.2330054717        2.6509765640
 H          3.9176364183       -1.1638517175        4.1414369106
 H          5.0405601663        0.1441715493        3.7454010031
 C          1.1915995661        0.5158989626        0.4813110471
 H          1.4460776884       -0.5491011662        0.5948219735
 O          0.2917936219        0.8952090683        1.4982276014
 H          0.7904373982        0.8828969597        2.3363012710
 C          0.4887208066        0.6769932950       -0.8797738756
 H         -0.5925608863        0.6423612298       -0.7238612909
 O          0.8762151334       -0.3909634439       -1.7471180509
 C          0.1897714910        3.2278023298       -0.8374257672
 H          0.7187497298        4.1091532178       -1.2119796021
 H          0.3447091901        3.1642465409        0.2392821229
 O         -1.1690474034        3.4658673987       -1.1537032335
 C          0.0217463233       -1.4827888838       -1.7786239392
 H         -0.9374812840       -1.2170766417       -2.2664522937
 C         -1.0036853193       -3.0696410585       -0.3379482364
 H         -1.9729904374       -2.9424829165       -0.8466084271
 O         -0.2306567216       -1.8921808015       -0.4540231203
 C          0.7186713942       -2.5849938984       -2.5885099990
 H          1.7301665232       -2.7178446882       -2.1701558127
 O          0.7814141905       -2.1776329803       -3.9258376636
 H          1.0257789496       -2.9533705218       -4.4497970438
 C         -0.0401212695       -3.9217568275       -2.4708244581
 H         -0.9978424817       -3.8326103623       -2.9965004173
 O          0.6766561417       -4.9357779044       -3.1211430082
 H          1.3834751015       -5.2110121400       -2.5204408993
 C         -0.2767148458       -4.2555306667       -0.9910278001
 H         -0.9177319825       -5.1503456792       -0.9166490349
 O          0.9799389679       -4.5134329233       -0.4167508510
 H          0.9048493350       -4.3620566861        0.5414474794
 C         -1.2360144436       -3.2721824518        1.1689101476
 H         -1.7518468470       -4.2192887573        1.3391668987
 H         -1.8518948999       -2.4493291870        1.5504870914
 O         -0.0186255768       -3.3428286880        1.8711311914
 H          0.4139497188       -2.4839777175        1.7810592391
 C         -2.1860239841        2.9633714236       -0.3627145086
 H         -3.0739766571        3.5424801686       -0.6734120578
 C         -3.5856731852        1.0659139293       -0.1152594317
 H         -4.4357334010        1.7041844861       -0.4081123130
 O         -2.3971982969        1.5961715329       -0.6707053040
 C         -2.0195040610        3.1246115853        1.1609307308
 H         -1.1272833739        2.5728602175        1.4928998245
 O         -1.8900390829        4.4883841696        1.4716784712
 H         -2.1005765155        4.5859070846        2.4106872130
 C         -3.2375047323        2.5203550627        1.8888799604
 H         -4.1176856314        3.1407530670        1.6824672604
 O         -3.0254487072        2.5669500101        3.2787383026
 H         -2.5582588957        1.7520297524        3.5183653638
 C         -3.4863708558        1.0751574648        1.4209215793
 H         -4.4248494777        0.7110966794        1.8538461902
 O         -2.4926972054        0.2153089954        1.9167675448
 H         -1.6319813182        0.4323319178        1.5144348574
 C         -3.7705958220       -0.3410571492       -0.6634726704
 H         -2.9737583338       -0.9768055038       -0.2896904757
 H         -3.7320253997       -0.3165400321       -1.7484345564
 H         -4.7276654853       -0.7405563123       -0.3416017082
 H          2.7981912822        1.3930742107        4.0136937220
