  72
       -125.08991624
 C         -0.4321787490       -3.1209054583        0.2006117595
 H         -0.2315199254       -4.1885582177        0.3861377843
 O         -0.0423063903       -2.7706590455       -1.0903763198
 H          0.9142005429       -2.6081306397       -1.0641185688
 C          0.1557288744       -1.0330551715        1.1213857544
 H          0.3950506130       -0.6486452944        0.1213558839
 O          0.3127792014       -2.4453642953        1.1697161815
 C         -1.9348522011       -2.8389645428        0.3627189742
 H         -2.2614328460       -3.2237669145        1.3341122064
 N         -2.6701998883       -3.5166537980       -0.6817834912
 H         -2.2151168183       -3.3627506727       -1.5764904043
 C         -4.0704184650       -3.3200908097       -0.7154293033
 O         -4.6546982756       -3.3408702134       -1.9688089981
 C         -4.8920691576       -4.0015074085        0.3462297881
 H         -4.8469683061       -5.0905531159        0.2494670541
 H         -5.9275804179       -3.6907923316        0.2328395571
 H         -4.5459962448       -3.7264233071        1.3382546708
 C         -2.1690632802       -1.3099924287        0.3276374824
 H         -1.8225015136       -0.9443442672       -0.6553476312
 O         -3.5133572172       -0.9896573544        0.5246779478
 H         -4.0501645610       -1.6581049650        0.0030614528
 C         -1.3081659839       -0.6719668091        1.4265151859
 H         -1.5903400488       -1.1065561102        2.3938240663
 O         -1.4845916524        0.7202254087        1.6128404878
 C          1.1299428530       -0.4317110563        2.1296063300
 H          1.2377141318       -1.1281548941        2.9704695949
 H          0.7414594164        0.5271673939        2.4783614336
 O          2.3955112696       -0.1358269264        1.5762075469
 C         -1.7789486595        1.5320169798        0.5184164776
 H         -2.6081440344        1.1077721645       -0.0774483423
 C         -0.9475026149        2.5476577131       -1.4146506546
 H         -1.7296635816        2.0514268645       -2.0139426468
 O         -0.6506305017        1.7240995760       -0.2983676222
 C         -2.2513424552        2.8656451189        1.1132802021
 H         -1.4081637901        3.3092299624        1.6650383708
 O         -3.3596314179        2.6885736679        1.9581064121
 H         -3.2439206696        1.8449022265        2.4124967936
 C         -2.6546141800        3.7898918403       -0.0365930915
 H         -3.5116767744        3.3390362207       -0.5609396487
 O         -2.9928857268        5.0719946152        0.4344554828
 H         -3.5835891722        4.9465628565        1.1871667125
 C         -1.4690364060        3.9337182887       -0.9994276562
 H         -1.8154871721        4.4578832044       -1.9054986834
 O         -0.4403065896        4.6665712684       -0.3900378463
 H         -0.8731726983        5.4120529526        0.0556072624
 C          0.3182351079        2.7201390298       -2.2699082623
 H          1.0606940021        3.2541230375       -1.6730541473
 H          0.0470558147        3.3307591232       -3.1366140616
 O          0.8205210556        1.5050076490       -2.7468385513
 H          1.4838153821        1.2117688807       -2.0988267070
 C          3.1575808024       -1.2283426834        1.1032416560
 H          3.0128928764       -2.0874684691        1.7789634923
 C          3.4816695547       -1.1717870721       -1.2817537993
 H          4.4178186808       -1.7431104095       -1.3584654187
 O          2.7402704070       -1.6666271593       -0.1579578943
 C          4.6258692875       -0.7579549508        1.1270381539
 H          4.8238189545       -0.3422966054        2.1247257426
 O          5.5033370749       -1.8150369729        0.8283745294
 H          5.4851108785       -2.4639025885        1.5392116448
 C          4.8813768370        0.3726430644        0.0960498453
 H          5.8891458330        0.1949329172       -0.2967208916
 O          4.8815719463        1.6320478977        0.6944157605
 H          3.9997492536        2.0196259899        0.5816737178
 C          3.8579816382        0.2997747686       -1.0619827017
 H          4.3025314418        0.7067956837       -1.9744027476
 O          2.7460909763        1.1175686206       -0.7986899995
 H          2.3024556619        0.7938637952        0.0110617059
 C          2.6388855786       -1.3960608733       -2.5302740884
 H          3.1907502616       -1.0697779133       -3.4028499365
 H          1.7126525712       -0.8376327048       -2.4849109211
 H          2.4148812083       -2.4495187404       -2.6372432031
 H         -4.0011726164       -3.5264065414       -2.6546736799
