  72

 C          0.3285500000        3.8257400000       -0.5801900000
 H         -0.5084100000        4.3049700000       -0.0594900000
 O          1.1959000000        4.7470100000       -1.1392500000
 H          0.7183300000        5.2727000000       -1.7878000000
 C         -1.0033800000        1.9307800000       -1.2687900000
 H         -1.0814600000        1.3280300000       -2.1730500000
 O         -0.1400900000        3.0064700000       -1.6364000000
 C          1.1128500000        3.0064000000        0.4359900000
 H          1.3890900000        3.6404900000        1.2817100000
 N          2.3165100000        2.5261900000       -0.2305700000
 H          2.3611700000        2.6969000000       -1.2276100000
 C          3.2615700000        1.8199700000        0.3142800000
 O          3.2397700000        1.6482300000        1.5893000000
 C          4.3390400000        1.2328100000       -0.5186300000
 H          5.3132200000        1.5292000000       -0.1221400000
 H          4.2628400000        1.5429500000       -1.5603200000
 H          4.2600000000        0.1415500000       -0.4604300000
 C          0.2301200000        1.8562800000        0.9443000000
 H          0.8262400000        1.1972600000        1.5760900000
 O         -0.7930000000        2.4625000000        1.7009900000
 H         -1.6444400000        2.0654900000        1.4693700000
 C         -0.3448200000        1.0417500000       -0.2177000000
 H         -1.0846000000        0.3380000000        0.1689900000
 O          0.6663700000        0.2959700000       -0.8973700000
 C         -2.4108400000        2.4511100000       -0.8922200000
 H         -3.0621800000        2.4214300000       -1.7697900000
 H         -2.3480400000        3.4860200000       -0.5545400000
 O         -3.0077800000        1.7359900000        0.1827900000
 C          0.9829600000       -0.9338200000       -0.3485400000
 H          0.0729500000       -1.4617100000       -0.0150200000
 C          2.2875300000       -1.8976700000        1.3952200000
 H          1.4233800000       -2.4689300000        1.7709500000
 O          1.8472000000       -0.7149000000        0.7552900000
 C          1.7267900000       -1.7272100000       -1.4108600000
 H          2.5904800000       -1.1258300000       -1.7264000000
 O          0.9117700000       -2.0551200000       -2.5080700000
 H          0.6380600000       -1.2406100000       -2.9386400000
 C          2.2253200000       -3.0381200000       -0.8292300000
 H          1.3522700000       -3.6572400000       -0.5737900000
 O          3.0712400000       -3.7123100000       -1.7293300000
 H          2.6217900000       -3.7787200000       -2.5777500000
 C          3.0444900000       -2.8003700000        0.4304500000
 H          3.2306300000       -3.7653100000        0.9197800000
 O          4.2855700000       -2.1875900000        0.0996600000
 H          4.6669600000       -2.6992800000       -0.6252000000
 C          3.1095000000       -1.4670600000        2.5991000000
 H          3.4877100000       -2.3493100000        3.1252700000
 H          2.4813400000       -0.9002800000        3.2879400000
 O          4.1966600000       -0.6110700000        2.2495300000
 H          4.7069100000       -1.0746900000        1.5655900000
 C         -3.7327700000        0.5885900000       -0.1668600000
 H         -4.6671800000        0.8766800000       -0.6792400000
 C         -3.5007100000       -1.4475700000       -1.3602700000
 H         -4.5020200000       -1.2800800000       -1.7880300000
 O         -2.9325700000       -0.1821000000       -1.0215400000
 C         -4.0268400000       -0.1403600000        1.1374600000
 H         -3.0720500000       -0.2461500000        1.6716400000
 O         -4.9817200000        0.5306500000        1.9239900000
 H         -4.6174600000        1.3667500000        2.2251000000
 C         -4.5728100000       -1.5322400000        0.8751300000
 H         -5.5792300000       -1.4393900000        0.4407900000
 O         -4.6126500000       -2.2851700000        2.0650800000
 H         -5.1001700000       -1.7814600000        2.7241600000
 C         -3.6810900000       -2.2823200000       -0.1019800000
 H         -4.1775200000       -3.2235300000       -0.3759800000
 O         -2.4168700000       -2.5419900000        0.4770100000
 H         -2.5997000000       -2.9232200000        1.3433700000
 C         -2.6066700000       -2.0886600000       -2.3923800000
 H         -3.0310700000       -3.0432900000       -2.7120600000
 H         -1.6118700000       -2.2743900000       -1.9856900000
 H         -2.5231500000       -1.4428800000       -3.2694500000
 H          3.7404900000        0.8037500000        1.8665800000
