 Entering Gaussian System, Link 0=g16
 Input=input.com
 Output=input.log
 Initial command:
 /home/matma/Software/gaussian16.B01_files/AVX2/tar//g16/l1.exe "/scratch/Gau-36774.inp" -scrdir="/scratch/"
 Entering Link 1 = /home/matma/Software/gaussian16.B01_files/AVX2/tar//g16/l1.exe PID=     36775.
  
 Copyright (c) 1988-2017, Gaussian, Inc.  All Rights Reserved.
  
 This is part of the Gaussian(R) 16 program.  It is based on
 the Gaussian(R) 09 system (copyright 2009, Gaussian, Inc.),
 the Gaussian(R) 03 system (copyright 2003, Gaussian, Inc.),
 the Gaussian(R) 98 system (copyright 1998, Gaussian, Inc.),
 the Gaussian(R) 94 system (copyright 1995, Gaussian, Inc.),
 the Gaussian 92(TM) system (copyright 1992, Gaussian, Inc.),
 the Gaussian 90(TM) system (copyright 1990, Gaussian, Inc.),
 the Gaussian 88(TM) system (copyright 1988, Gaussian, Inc.),
 the Gaussian 86(TM) system (copyright 1986, Carnegie Mellon
 University), and the Gaussian 82(TM) system (copyright 1983,
 Carnegie Mellon University). Gaussian is a federally registered
 trademark of Gaussian, Inc.
  
 This software contains proprietary and confidential information,
 including trade secrets, belonging to Gaussian, Inc.
  
 This software is provided under written license and may be
 used, copied, transmitted, or stored only in accord with that
 written license.
  
 The following legend is applicable only to US Government
 contracts under FAR:
  
                    RESTRICTED RIGHTS LEGEND
  
 Use, reproduction and disclosure by the US Government is
 subject to restrictions as set forth in subparagraphs (a)
 and (c) of the Commercial Computer Software - Restricted
 Rights clause in FAR 52.227-19.
  
 Gaussian, Inc.
 340 Quinnipiac St., Bldg. 40, Wallingford CT 06492
  
  
 ---------------------------------------------------------------
 Warning -- This program may not be used in any manner that
 competes with the business of Gaussian, Inc. or will provide
 assistance to any competitor of Gaussian, Inc.  The licensee
 of this program is prohibited from giving any competitor of
 Gaussian, Inc. access to this program.  By using this program,
 the user acknowledges that Gaussian, Inc. is engaged in the
 business of creating and licensing software in the field of
 computational chemistry and represents and warrants to the
 licensee that it is not a competitor of Gaussian, Inc. and that
 it will not use this program in any manner prohibited above.
 ---------------------------------------------------------------
  

 Cite this work as:
 Gaussian 16, Revision B.01,
 M. J. Frisch, G. W. Trucks, H. B. Schlegel, G. E. Scuseria, 
 M. A. Robb, J. R. Cheeseman, G. Scalmani, V. Barone, 
 G. A. Petersson, H. Nakatsuji, X. Li, M. Caricato, A. V. Marenich, 
 J. Bloino, B. G. Janesko, R. Gomperts, B. Mennucci, H. P. Hratchian, 
 J. V. Ortiz, A. F. Izmaylov, J. L. Sonnenberg, D. Williams-Young, 
 F. Ding, F. Lipparini, F. Egidi, J. Goings, B. Peng, A. Petrone, 
 T. Henderson, D. Ranasinghe, V. G. Zakrzewski, J. Gao, N. Rega, 
 G. Zheng, W. Liang, M. Hada, M. Ehara, K. Toyota, R. Fukuda, 
 J. Hasegawa, M. Ishida, T. Nakajima, Y. Honda, O. Kitao, H. Nakai, 
 T. Vreven, K. Throssell, J. A. Montgomery, Jr., J. E. Peralta, 
 F. Ogliaro, M. J. Bearpark, J. J. Heyd, E. N. Brothers, K. N. Kudin, 
 V. N. Staroverov, T. A. Keith, R. Kobayashi, J. Normand, 
 K. Raghavachari, A. P. Rendell, J. C. Burant, S. S. Iyengar, 
 J. Tomasi, M. Cossi, J. M. Millam, M. Klene, C. Adamo, R. Cammi, 
 J. W. Ochterski, R. L. Martin, K. Morokuma, O. Farkas, 
 J. B. Foresman, and D. J. Fox, Gaussian, Inc., Wallingford CT, 2016.
 
 ******************************************
 Gaussian 16:  ES64L-G16RevB.01 20-Dec-2017
                 1-Nov-2024 
 ******************************************
 %nprocshared=28
 Will use up to   28 processors via shared memory.
 %mem=32GB
 %chk=input.chk
 ----------------------------------------------------------------------
 #P opt=calcfc freq pbe1pbe/6-311+g(d,p) EmpiricalDispersion=GD3 Int=(g
 rid=99590)
 ----------------------------------------------------------------------
 1/10=4,18=20,19=15,26=5,38=1/1,3;
 2/9=110,12=2,17=6,18=5,40=1/2;
 3/5=4,6=6,7=111,11=2,25=1,30=1,71=2,74=-13,75=99590,124=31,140=1/1,2,3;
 4//1;
 5/5=2,38=5/2;
 8/6=4,10=90,11=11/1;
 11/6=1,8=1,9=11,15=111,16=1/1,2,10;
 10/6=1,13=1/2;
 6/7=2,8=2,9=2,10=2,28=1/1;
 7/10=1,18=20,25=1/1,2,3,16;
 1/10=4,18=20,19=15,26=5/3(2);
 2/9=110/2;
 99//99;
 2/9=110/2;
 3/5=4,6=6,7=111,11=2,25=1,30=1,71=1,74=-13,75=99590,124=31/1,2,3;
 4/5=5,16=3,69=1/1;
 5/5=2,38=5/2;
 7//1,2,3,16;
 1/18=20,19=15,26=5/3(-5);
 2/9=110/2;
 6/7=2,8=2,9=2,10=2,19=2,28=1/1;
 99/9=1/99;
 Leave Link    1 at Fri Nov  1 10:56:19 2024, MaxMem=  4294967296 cpu:               0.8 elap:               0.0
 (Enter /home/matma/Software/gaussian16.B01_files/AVX2/tar//g16/l101.exe)
 --------
 OPT+FREQ
 --------
 Symbolic Z-matrix:
 Charge =  0 Multiplicity = 1
 O                    -0.6679    1.1587    0.257 
 O                    -0.887    -2.4483   -0.3388 
 O                     1.8623   -2.0693    0.4696 
 O                     2.8609    0.5414   -0.4619 
 O                     1.1222    2.6552    0.2574 
 O                    -3.3742    0.9717   -0.1865 
 C                    -0.3727   -1.247     0.23 
 C                     1.0856   -1.0709   -0.194 
 C                    -1.2211   -0.0621   -0.2375 
 C                     1.6082    0.3151    0.1839 
 C                     0.6388    1.4132   -0.2534 
 C                    -2.655    -0.1577    0.274 
 H                    -0.4248   -1.3522    1.3206 
 H                     1.2066   -1.2487   -1.2697 
 H                    -1.2548   -0.0098   -1.3343 
 H                     1.7952    0.3598    1.2636 
 H                     0.5967    1.5141   -1.344 
 H                    -2.6916   -0.1535    1.3685 
 H                    -3.1564   -1.0581   -0.0922 
 H                    -0.8514   -2.3615   -1.3066 
 H                     1.4973   -2.9356    0.22 
 H                     2.7165    0.4989   -1.4227 
 H                     1.4876    2.5033    1.1448 
 H                    -2.9192    1.7652    0.144 
 
 ITRead=  0  0  0  0  0  0  0  0  0  0  0  0  0  0  0  0  0  0  0  0
 ITRead=  0  0  0  0
 MicOpt= -1 -1 -1 -1 -1 -1 -1 -1 -1 -1 -1 -1 -1 -1 -1 -1 -1 -1 -1 -1
 MicOpt= -1 -1 -1 -1
 NAtoms=     24 NQM=       24 NQMF=       0 NMMI=      0 NMMIF=      0
                NMic=       0 NMicF=      0.
                    Isotopes and Nuclear Properties:
 (Nuclear quadrupole moments (NQMom) in fm**2, nuclear magnetic moments (NMagM)
  in nuclear magnetons)

  Atom         1           2           3           4           5           6           7           8           9          10
 IAtWgt=          16          16          16          16          16          16          12          12          12          12
 AtmWgt=  15.9949146  15.9949146  15.9949146  15.9949146  15.9949146  15.9949146  12.0000000  12.0000000  12.0000000  12.0000000
 NucSpn=           0           0           0           0           0           0           0           0           0           0
 AtZEff=  -0.0000000  -0.0000000  -0.0000000  -0.0000000  -0.0000000  -0.0000000  -0.0000000  -0.0000000  -0.0000000  -0.0000000
 NQMom=    0.0000000   0.0000000   0.0000000   0.0000000   0.0000000   0.0000000   0.0000000   0.0000000   0.0000000   0.0000000
 NMagM=    0.0000000   0.0000000   0.0000000   0.0000000   0.0000000   0.0000000   0.0000000   0.0000000   0.0000000   0.0000000
 AtZNuc=   8.0000000   8.0000000   8.0000000   8.0000000   8.0000000   8.0000000   6.0000000   6.0000000   6.0000000   6.0000000

  Atom        11          12          13          14          15          16          17          18          19          20
 IAtWgt=          12          12           1           1           1           1           1           1           1           1
 AtmWgt=  12.0000000  12.0000000   1.0078250   1.0078250   1.0078250   1.0078250   1.0078250   1.0078250   1.0078250   1.0078250
 NucSpn=           0           0           1           1           1           1           1           1           1           1
 AtZEff=  -0.0000000  -0.0000000  -0.0000000  -0.0000000  -0.0000000  -0.0000000  -0.0000000  -0.0000000  -0.0000000  -0.0000000
 NQMom=    0.0000000   0.0000000   0.0000000   0.0000000   0.0000000   0.0000000   0.0000000   0.0000000   0.0000000   0.0000000
 NMagM=    0.0000000   0.0000000   2.7928460   2.7928460   2.7928460   2.7928460   2.7928460   2.7928460   2.7928460   2.7928460
 AtZNuc=   6.0000000   6.0000000   1.0000000   1.0000000   1.0000000   1.0000000   1.0000000   1.0000000   1.0000000   1.0000000

  Atom        21          22          23          24
 IAtWgt=           1           1           1           1
 AtmWgt=   1.0078250   1.0078250   1.0078250   1.0078250
 NucSpn=           1           1           1           1
 AtZEff=  -0.0000000  -0.0000000  -0.0000000  -0.0000000
 NQMom=    0.0000000   0.0000000   0.0000000   0.0000000
 NMagM=    2.7928460   2.7928460   2.7928460   2.7928460
 AtZNuc=   1.0000000   1.0000000   1.0000000   1.0000000
 Leave Link  101 at Fri Nov  1 10:56:19 2024, MaxMem=  4294967296 cpu:               6.7 elap:               0.3
 (Enter /home/matma/Software/gaussian16.B01_files/AVX2/tar//g16/l103.exe)

 GradGradGradGradGradGradGradGradGradGradGradGradGradGradGradGradGradGrad
 Berny optimization.
 Initialization pass.
                           ----------------------------
                           !    Initial Parameters    !
                           ! (Angstroms and Degrees)  !
 --------------------------                            --------------------------
 ! Name  Definition              Value          Derivative Info.                !
 --------------------------------------------------------------------------------
 ! R1    R(1,9)                  1.4286         calculate D2E/DX2 analytically  !
 ! R2    R(1,11)                 1.4257         calculate D2E/DX2 analytically  !
 ! R3    R(2,7)                  1.4252         calculate D2E/DX2 analytically  !
 ! R4    R(2,20)                 0.9723         calculate D2E/DX2 analytically  !
 ! R5    R(3,8)                  1.4284         calculate D2E/DX2 analytically  !
 ! R6    R(3,21)                 0.9726         calculate D2E/DX2 analytically  !
 ! R7    R(4,10)                 1.4274         calculate D2E/DX2 analytically  !
 ! R8    R(4,22)                 0.9725         calculate D2E/DX2 analytically  !
 ! R9    R(5,11)                 1.4273         calculate D2E/DX2 analytically  !
 ! R10   R(5,23)                 0.9716         calculate D2E/DX2 analytically  !
 ! R11   R(6,12)                 1.4159         calculate D2E/DX2 analytically  !
 ! R12   R(6,24)                 0.9726         calculate D2E/DX2 analytically  !
 ! R13   R(7,8)                  1.5289         calculate D2E/DX2 analytically  !
 ! R14   R(7,9)                  1.5305         calculate D2E/DX2 analytically  !
 ! R15   R(7,13)                 1.0969         calculate D2E/DX2 analytically  !
 ! R16   R(8,10)                 1.5287         calculate D2E/DX2 analytically  !
 ! R17   R(8,14)                 1.097          calculate D2E/DX2 analytically  !
 ! R18   R(9,12)                 1.5254         calculate D2E/DX2 analytically  !
 ! R19   R(9,15)                 1.0986         calculate D2E/DX2 analytically  !
 ! R20   R(10,11)                1.5287         calculate D2E/DX2 analytically  !
 ! R21   R(10,16)                1.0967         calculate D2E/DX2 analytically  !
 ! R22   R(11,17)                1.0961         calculate D2E/DX2 analytically  !
 ! R23   R(12,18)                1.0951         calculate D2E/DX2 analytically  !
 ! R24   R(12,19)                1.0937         calculate D2E/DX2 analytically  !
 ! A1    A(9,1,11)             112.552          calculate D2E/DX2 analytically  !
 ! A2    A(7,2,20)             107.986          calculate D2E/DX2 analytically  !
 ! A3    A(8,3,21)             107.4137         calculate D2E/DX2 analytically  !
 ! A4    A(10,4,22)            108.0435         calculate D2E/DX2 analytically  !
 ! A5    A(11,5,23)            108.5532         calculate D2E/DX2 analytically  !
 ! A6    A(12,6,24)            107.6155         calculate D2E/DX2 analytically  !
 ! A7    A(2,7,8)              109.3061         calculate D2E/DX2 analytically  !
 ! A8    A(2,7,9)              109.3071         calculate D2E/DX2 analytically  !
 ! A9    A(2,7,13)             107.3875         calculate D2E/DX2 analytically  !
 ! A10   A(8,7,9)              110.7852         calculate D2E/DX2 analytically  !
 ! A11   A(8,7,13)             109.3956         calculate D2E/DX2 analytically  !
 ! A12   A(9,7,13)             110.587          calculate D2E/DX2 analytically  !
 ! A13   A(3,8,7)              108.0171         calculate D2E/DX2 analytically  !
 ! A14   A(3,8,10)             109.4496         calculate D2E/DX2 analytically  !
 ! A15   A(3,8,14)             106.3968         calculate D2E/DX2 analytically  !
 ! A16   A(7,8,10)             111.2204         calculate D2E/DX2 analytically  !
 ! A17   A(7,8,14)             111.0075         calculate D2E/DX2 analytically  !
 ! A18   A(10,8,14)            110.5882         calculate D2E/DX2 analytically  !
 ! A19   A(1,9,7)              109.95           calculate D2E/DX2 analytically  !
 ! A20   A(1,9,12)             107.5471         calculate D2E/DX2 analytically  !
 ! A21   A(1,9,15)             108.4685         calculate D2E/DX2 analytically  !
 ! A22   A(7,9,12)             111.7243         calculate D2E/DX2 analytically  !
 ! A23   A(7,9,15)             111.0287         calculate D2E/DX2 analytically  !
 ! A24   A(12,9,15)            107.9948         calculate D2E/DX2 analytically  !
 ! A25   A(4,10,8)             109.3849         calculate D2E/DX2 analytically  !
 ! A26   A(4,10,11)            108.2535         calculate D2E/DX2 analytically  !
 ! A27   A(4,10,16)            106.8168         calculate D2E/DX2 analytically  !
 ! A28   A(8,10,11)            111.3326         calculate D2E/DX2 analytically  !
 ! A29   A(8,10,16)            109.7929         calculate D2E/DX2 analytically  !
 ! A30   A(11,10,16)           111.1303         calculate D2E/DX2 analytically  !
 ! A31   A(1,11,5)             109.7318         calculate D2E/DX2 analytically  !
 ! A32   A(1,11,10)            110.522          calculate D2E/DX2 analytically  !
 ! A33   A(1,11,17)            109.7205         calculate D2E/DX2 analytically  !
 ! A34   A(5,11,10)            107.9347         calculate D2E/DX2 analytically  !
 ! A35   A(5,11,17)            106.7981         calculate D2E/DX2 analytically  !
 ! A36   A(10,11,17)           112.0322         calculate D2E/DX2 analytically  !
 ! A37   A(6,12,9)             108.5675         calculate D2E/DX2 analytically  !
 ! A38   A(6,12,18)            107.7587         calculate D2E/DX2 analytically  !
 ! A39   A(6,12,19)            108.355          calculate D2E/DX2 analytically  !
 ! A40   A(9,12,18)            111.4881         calculate D2E/DX2 analytically  !
 ! A41   A(9,12,19)            111.7316         calculate D2E/DX2 analytically  !
 ! A42   A(18,12,19)           108.8122         calculate D2E/DX2 analytically  !
 ! D1    D(11,1,9,7)            63.2036         calculate D2E/DX2 analytically  !
 ! D2    D(11,1,9,12)         -174.942          calculate D2E/DX2 analytically  !
 ! D3    D(11,1,9,15)          -58.3773         calculate D2E/DX2 analytically  !
 ! D4    D(9,1,11,5)           178.9059         calculate D2E/DX2 analytically  !
 ! D5    D(9,1,11,10)          -62.1752         calculate D2E/DX2 analytically  !
 ! D6    D(9,1,11,17)           61.8586         calculate D2E/DX2 analytically  !
 ! D7    D(20,2,7,8)           -61.8618         calculate D2E/DX2 analytically  !
 ! D8    D(20,2,7,9)            59.5473         calculate D2E/DX2 analytically  !
 ! D9    D(20,2,7,13)          179.5558         calculate D2E/DX2 analytically  !
 ! D10   D(21,3,8,7)            57.9181         calculate D2E/DX2 analytically  !
 ! D11   D(21,3,8,10)          179.1504         calculate D2E/DX2 analytically  !
 ! D12   D(21,3,8,14)          -61.3347         calculate D2E/DX2 analytically  !
 ! D13   D(22,4,10,8)           60.8116         calculate D2E/DX2 analytically  !
 ! D14   D(22,4,10,11)         -60.6634         calculate D2E/DX2 analytically  !
 ! D15   D(22,4,10,16)         179.5855         calculate D2E/DX2 analytically  !
 ! D16   D(23,5,11,1)           82.4261         calculate D2E/DX2 analytically  !
 ! D17   D(23,5,11,10)         -38.0744         calculate D2E/DX2 analytically  !
 ! D18   D(23,5,11,17)        -158.7095         calculate D2E/DX2 analytically  !
 ! D19   D(24,6,12,9)          -58.4078         calculate D2E/DX2 analytically  !
 ! D20   D(24,6,12,18)          62.4786         calculate D2E/DX2 analytically  !
 ! D21   D(24,6,12,19)        -179.9397         calculate D2E/DX2 analytically  !
 ! D22   D(2,7,8,3)            -69.8083         calculate D2E/DX2 analytically  !
 ! D23   D(2,7,8,10)           170.0656         calculate D2E/DX2 analytically  !
 ! D24   D(2,7,8,14)            46.4794         calculate D2E/DX2 analytically  !
 ! D25   D(9,7,8,3)            169.6817         calculate D2E/DX2 analytically  !
 ! D26   D(9,7,8,10)            49.5556         calculate D2E/DX2 analytically  !
 ! D27   D(9,7,8,14)           -74.0306         calculate D2E/DX2 analytically  !
 ! D28   D(13,7,8,3)            47.5158         calculate D2E/DX2 analytically  !
 ! D29   D(13,7,8,10)          -72.6102         calculate D2E/DX2 analytically  !
 ! D30   D(13,7,8,14)          163.8035         calculate D2E/DX2 analytically  !
 ! D31   D(2,7,9,1)           -176.3956         calculate D2E/DX2 analytically  !
 ! D32   D(2,7,9,12)            64.2714         calculate D2E/DX2 analytically  !
 ! D33   D(2,7,9,15)           -56.3561         calculate D2E/DX2 analytically  !
 ! D34   D(8,7,9,1)            -55.8862         calculate D2E/DX2 analytically  !
 ! D35   D(8,7,9,12)          -175.2193         calculate D2E/DX2 analytically  !
 ! D36   D(8,7,9,15)            64.1533         calculate D2E/DX2 analytically  !
 ! D37   D(13,7,9,1)            65.581          calculate D2E/DX2 analytically  !
 ! D38   D(13,7,9,12)          -53.7521         calculate D2E/DX2 analytically  !
 ! D39   D(13,7,9,15)         -174.3795         calculate D2E/DX2 analytically  !
 ! D40   D(3,8,10,4)            72.551          calculate D2E/DX2 analytically  !
 ! D41   D(3,8,10,11)         -167.8528         calculate D2E/DX2 analytically  !
 ! D42   D(3,8,10,16)          -44.3586         calculate D2E/DX2 analytically  !
 ! D43   D(7,8,10,4)          -168.1746         calculate D2E/DX2 analytically  !
 ! D44   D(7,8,10,11)          -48.5785         calculate D2E/DX2 analytically  !
 ! D45   D(7,8,10,16)           74.9157         calculate D2E/DX2 analytically  !
 ! D46   D(14,8,10,4)          -44.3496         calculate D2E/DX2 analytically  !
 ! D47   D(14,8,10,11)          75.2465         calculate D2E/DX2 analytically  !
 ! D48   D(14,8,10,16)        -161.2593         calculate D2E/DX2 analytically  !
 ! D49   D(1,9,12,6)            58.7897         calculate D2E/DX2 analytically  !
 ! D50   D(1,9,12,18)          -59.767          calculate D2E/DX2 analytically  !
 ! D51   D(1,9,12,19)          178.2289         calculate D2E/DX2 analytically  !
 ! D52   D(7,9,12,6)           179.5335         calculate D2E/DX2 analytically  !
 ! D53   D(7,9,12,18)           60.9768         calculate D2E/DX2 analytically  !
 ! D54   D(7,9,12,19)          -61.0274         calculate D2E/DX2 analytically  !
 ! D55   D(15,9,12,6)          -58.0848         calculate D2E/DX2 analytically  !
 ! D56   D(15,9,12,18)        -176.6415         calculate D2E/DX2 analytically  !
 ! D57   D(15,9,12,19)          61.3543         calculate D2E/DX2 analytically  !
 ! D58   D(4,10,11,1)          174.1502         calculate D2E/DX2 analytically  !
 ! D59   D(4,10,11,5)          -65.8457         calculate D2E/DX2 analytically  !
 ! D60   D(4,10,11,17)          51.4555         calculate D2E/DX2 analytically  !
 ! D61   D(8,10,11,1)           53.8843         calculate D2E/DX2 analytically  !
 ! D62   D(8,10,11,5)          173.8884         calculate D2E/DX2 analytically  !
 ! D63   D(8,10,11,17)         -68.8104         calculate D2E/DX2 analytically  !
 ! D64   D(16,10,11,1)         -68.8447         calculate D2E/DX2 analytically  !
 ! D65   D(16,10,11,5)          51.1593         calculate D2E/DX2 analytically  !
 ! D66   D(16,10,11,17)        168.4605         calculate D2E/DX2 analytically  !
 --------------------------------------------------------------------------------
 Trust Radius=3.00D-01 FncErr=1.00D-07 GrdErr=1.00D-07 EigMax=2.50D+02 EigMin=1.00D-04
 Number of steps in this run=    142 maximum allowed number of steps=    144.
 GradGradGradGradGradGradGradGradGradGradGradGradGradGradGradGradGradGrad

 Leave Link  103 at Fri Nov  1 10:56:19 2024, MaxMem=  4294967296 cpu:               0.2 elap:               0.0
 (Enter /home/matma/Software/gaussian16.B01_files/AVX2/tar//g16/l202.exe)
                          Input orientation:                          
 ---------------------------------------------------------------------
 Center     Atomic      Atomic             Coordinates (Angstroms)
 Number     Number       Type             X           Y           Z
 ---------------------------------------------------------------------
      1          8           0       -0.667900    1.158700    0.257000
      2          8           0       -0.887000   -2.448300   -0.338800
      3          8           0        1.862300   -2.069300    0.469600
      4          8           0        2.860900    0.541400   -0.461900
      5          8           0        1.122200    2.655200    0.257400
      6          8           0       -3.374200    0.971700   -0.186500
      7          6           0       -0.372700   -1.247000    0.230000
      8          6           0        1.085600   -1.070900   -0.194000
      9          6           0       -1.221100   -0.062100   -0.237500
     10          6           0        1.608200    0.315100    0.183900
     11          6           0        0.638800    1.413200   -0.253400
     12          6           0       -2.655000   -0.157700    0.274000
     13          1           0       -0.424800   -1.352200    1.320600
     14          1           0        1.206600   -1.248700   -1.269700
     15          1           0       -1.254800   -0.009800   -1.334300
     16          1           0        1.795200    0.359800    1.263600
     17          1           0        0.596700    1.514100   -1.344000
     18          1           0       -2.691600   -0.153500    1.368500
     19          1           0       -3.156400   -1.058100   -0.092200
     20          1           0       -0.851400   -2.361500   -1.306600
     21          1           0        1.497300   -2.935600    0.220000
     22          1           0        2.716500    0.498900   -1.422700
     23          1           0        1.487600    2.503300    1.144800
     24          1           0       -2.919200    1.765200    0.144000
 ---------------------------------------------------------------------
                    Distance matrix (angstroms):
                    1          2          3          4          5
     1  O    0.000000
     2  O    3.662435   0.000000
     3  O    4.106957   2.890640   0.000000
     4  O    3.653807   4.795854   2.946294   0.000000
     5  O    2.333232   5.517069   4.786823   2.829951   0.000000
     6  O    2.748767   4.231520   6.090901   6.255995   4.821704
     7  C    2.423894   1.425188   2.393493   3.759424   4.178833
     8  C    2.872156   2.410259   1.428436   2.413083   3.753521
     9  C    1.428605   2.411604   3.746491   4.132468   3.622113
    10  C    2.428505   3.759736   2.414861   1.427420   2.391164
    11  C    1.425743   4.152896   3.761315   2.396088   1.427290
    12  C    2.383645   2.957735   4.909020   5.608515   4.709556
    13  H    2.737693   2.041733   2.543474   4.190328   4.425252
    14  H    3.411765   2.586267   2.031869   2.567822   4.192803
    15  H    2.059631   2.659432   4.148724   4.243099   3.909714
    16  H    2.778191   4.200870   2.556456   2.036184   2.595039
    17  H    2.070923   4.348840   4.210896   2.617412   2.035373
    18  H    2.655685   3.381946   5.021585   5.887572   4.865019
    19  H    3.350936   2.672760   5.150291   6.237225   5.676023
    20  H    3.856206   0.972337   3.256445   4.787642   5.613241
    21  H    4.631712   2.496919   0.972626   3.796567   5.603494
    22  H    3.835478   4.779753   3.302440   0.972520   3.164515
    23  H    2.691156   5.688421   4.637345   2.883832   0.971632
    24  H    2.334301   4.702820   6.137764   5.939222   4.139791
                    6          7          8          9         10
     6  O    0.000000
     7  C    3.755676   0.000000
     8  C    4.905312   1.528864   0.000000
     9  C    2.388971   1.530466   2.518022   0.000000
    10  C    5.039110   2.523142   1.528697   2.885272   0.000000
    11  C    4.037768   2.886775   2.524661   2.374024   1.528657
    12  C    1.415928   2.529309   3.878794   1.525399   4.290283
    13  H    4.046087   1.096900   2.157418   2.173966   2.864448
    14  H    5.204539   2.177910   1.096989   2.892608   2.172488
    15  H    2.602430   2.180779   2.811350   1.098563   3.256879
    16  H    5.403694   2.889624   2.162182   3.395492   1.096686
    17  H    4.171577   3.322783   2.871193   2.648234   2.189797
    18  H    2.037165   2.805213   4.189304   2.179440   4.484545
    19  H    2.043628   2.808644   4.243241   2.181402   4.966218
    20  H    4.327744   1.957653   2.579825   2.562595   3.928792
    21  H    6.258095   2.519597   1.953970   3.981960   3.252791
    22  H    6.232845   3.914427   2.575618   4.150194   1.960427
    23  H    5.268326   4.285128   3.837824   3.978578   2.392925
    24  H    0.972573   3.945302   4.918956   2.523512   4.754128
                   11         12         13         14         15
    11  C    0.000000
    12  C    3.687139   0.000000
    13  H    3.355020   2.737881   0.000000
    14  H    2.905335   4.299447   3.062978   0.000000
    15  H    2.603650   2.137537   3.088597   2.756363   0.000000
    16  H    2.179037   4.588180   2.804032   3.057995   4.023455
    17  H    1.096066   3.998299   4.044655   2.830294   2.398003
    18  H    4.022023   1.095120   2.564675   4.832755   3.064339
    19  H    4.531760   1.093721   3.089359   4.523119   2.501565
    20  H    4.192647   3.256993   2.846551   2.339882   2.386209
    21  H    4.457936   4.996122   2.722672   2.269217   4.306995
    22  H    2.553438   5.671237   4.562897   2.314587   4.004724
    23  H    1.965641   5.000035   4.307326   4.470601   4.470164
    24  H    3.597387   1.945314   4.162283   5.301355   2.847143
                   16         17         18         19         20
    16  H    0.000000
    17  H    3.093281   0.000000
    18  H    4.517284   4.577277   0.000000
    19  H    5.326066   4.719002   1.779883   0.000000
    20  H    4.584309   4.137471   3.926546   2.913184   0.000000
    21  H    3.469511   4.801771   5.158102   5.027862   2.859456
    22  H    2.843299   2.351675   6.120782   6.219762   4.574416
    23  H    2.168715   2.822471   4.957251   5.981678   5.928454
    24  H    5.045218   3.826062   2.287490   2.843075   4.838356
                   21         22         23         24
    21  H    0.000000
    22  H    3.997587   0.000000
    23  H    5.516972   3.481360   0.000000
    24  H    6.450486   5.984913   4.578895   0.000000
 Stoichiometry    C6H12O6
 Framework group  C1[X(C6H12O6)]
 Deg. of freedom    66
 Full point group                 C1      NOp   1
 Largest Abelian subgroup         C1      NOp   1
 Largest concise Abelian subgroup C1      NOp   1
                         Standard orientation:                         
 ---------------------------------------------------------------------
 Center     Atomic      Atomic             Coordinates (Angstroms)
 Number     Number       Type             X           Y           Z
 ---------------------------------------------------------------------
      1          8           0       -0.673835   -1.169313   -0.243184
      2          8           0       -0.871023    2.449505    0.284739
      3          8           0        1.870199    2.041413   -0.536825
      4          8           0        2.863258   -0.555843    0.437210
      5          8           0        1.108980   -2.674410   -0.228225
      6          8           0       -3.375755   -0.960404    0.216928
      7          6           0       -0.366852    1.234967   -0.264687
      8          6           0        1.093761    1.059806    0.151669
      9          6           0       -1.217375    0.063487    0.231874
     10          6           0        1.606792   -0.335771   -0.203407
     11          6           0        0.635464   -1.420447    0.262199
     12          6           0       -2.654642    0.156363   -0.270597
     13          1           0       -0.426728    1.319464   -1.356687
     14          1           0        1.223785    1.257626    1.222811
     15          1           0       -1.242993    0.032425    1.329700
     16          1           0        1.785367   -0.402122   -1.283420
     17          1           0        0.601164   -1.500177    1.354824
     18          1           0       -2.699575    0.131329   -1.364509
     19          1           0       -3.148902    1.066105    0.081964
     20          1           0       -0.828491    2.381129    1.253736
     21          1           0        1.511283    2.914147   -0.301206
     22          1           0        2.726367   -0.494186    1.398071
     23          1           0        1.468356   -2.541393   -1.121099
     24          1           0       -2.927107   -1.762352   -0.101649
 ---------------------------------------------------------------------
 Rotational constants (GHZ):           1.1532378           0.7910001           0.4977188
 Leave Link  202 at Fri Nov  1 10:56:19 2024, MaxMem=  4294967296 cpu:               0.1 elap:               0.0
 (Enter /home/matma/Software/gaussian16.B01_files/AVX2/tar//g16/l301.exe)
 Standard basis: 6-311+G(d,p) (5D, 7F)
 Ernie: Thresh=  0.10000D-02 Tol=  0.10000D-05 Strict=F.
 There are   348 symmetry adapted cartesian basis functions of A   symmetry.
 There are   336 symmetry adapted basis functions of A   symmetry.
   336 basis functions,   528 primitive gaussians,   348 cartesian basis functions
    48 alpha electrons       48 beta electrons
       nuclear repulsion energy       823.9820498135 Hartrees.
 IExCor= 1009 DFT=T Ex+Corr=PBE1PBE ExCW=0 ScaHFX=  0.250000
 ScaDFX=  0.750000  0.750000  1.000000  1.000000 ScalE2=  1.000000  1.000000
 IRadAn=  99590 IRanWt=     -1 IRanGd=            0 ICorTp=0 IEmpDi=131
 NAtoms=   24 NActive=   24 NUniq=   24 SFac= 1.00D+00 NAtFMM=   60 NAOKFM=F Big=F
 Integral buffers will be    131072 words long.
 Raffenetti 2 integral format.
 Two-electron integral symmetry is turned on.
 R6Disp:  Grimme-D3 Dispersion energy=       -0.0155180543 Hartrees.
 Nuclear repulsion after empirical dispersion term =      823.9665317592 Hartrees.
 Leave Link  301 at Fri Nov  1 10:56:19 2024, MaxMem=  4294967296 cpu:               0.8 elap:               0.0
 (Enter /home/matma/Software/gaussian16.B01_files/AVX2/tar//g16/l302.exe)
 NPDir=0 NMtPBC=     1 NCelOv=     1 NCel=       1 NClECP=     1 NCelD=      1
         NCelK=      1 NCelE2=     1 NClLst=     1 CellRange=     0.0.
 One-electron integrals computed using PRISM.
 One-electron integral symmetry used in STVInt
 NBasis=   336 RedAO= T EigKep=  7.91D-06  NBF=   336
 NBsUse=   336 1.00D-06 EigRej= -1.00D+00 NBFU=   336
 Precomputing XC quadrature grid using
 IXCGrd= 4 IRadAn=       99590 IRanWt=          -1 IRanGd=           0 AccXCQ= 0.00D+00.
 Generated NRdTot=       0 NPtTot=           0 NUsed=           0 NTot=          32
 NSgBfM=   348   348   348   348   348 MxSgAt=    24 MxSgA2=    24.
 Leave Link  302 at Fri Nov  1 10:56:19 2024, MaxMem=  4294967296 cpu:               5.4 elap:               0.2
 (Enter /home/matma/Software/gaussian16.B01_files/AVX2/tar//g16/l303.exe)
 DipDrv:  MaxL=1.
 Leave Link  303 at Fri Nov  1 10:56:19 2024, MaxMem=  4294967296 cpu:               0.7 elap:               0.0
 (Enter /home/matma/Software/gaussian16.B01_files/AVX2/tar//g16/l401.exe)
 ExpMin= 4.38D-02 ExpMax= 8.59D+03 ExpMxC= 1.30D+03 IAcc=4 IRadAn=    199590 AccDes= 0.00D+00
 Harris functional with IExCor= 1009 and IRadAn=  199590 diagonalized for initial guess.
 HarFok:  IExCor= 1009 AccDes= 0.00D+00 IRadAn=    199590 IDoV= 1 UseB2=F ITyADJ=14
 ICtDFT=  3500011 ScaDFX=  1.000000  1.000000  1.000000  1.000000
 FoFCou: FMM=F IPFlag=           0 FMFlag=      100000 FMFlg1=           0
         NFxFlg=           0 DoJE=T BraDBF=F KetDBF=T FulRan=T
         wScrn=  0.000000 ICntrl=       500 IOpCl=  0 I1Cent=   200000004 NGrid=           0
         NMat0=    1 NMatS0=      1 NMatT0=    0 NMatD0=    1 NMtDS0=    0 NMtDT0=    0
 Petite list used in FoFCou.
 Harris En= -686.783677422447    
 JPrj=0 DoOrth=F DoCkMO=F.
 Leave Link  401 at Fri Nov  1 10:56:20 2024, MaxMem=  4294967296 cpu:              31.1 elap:               1.1
 (Enter /home/matma/Software/gaussian16.B01_files/AVX2/tar//g16/l502.exe)
 Integral symmetry usage will be decided dynamically.
 Closed shell SCF:
 Using DIIS extrapolation, IDIIS=  1040.
 NGot=  4294967296 LenX=  4294711890 LenY=  4294590345
 Requested convergence on RMS density matrix=1.00D-08 within 128 cycles.
 Requested convergence on MAX density matrix=1.00D-06.
 Requested convergence on             energy=1.00D-06.
 No special actions if energy rises.
 Fock matrices will be formed incrementally for  20 cycles.

 Cycle   1  Pass 1  IDiag  1:
 FoFJK:  IHMeth= 1 ICntrl=       0 DoSepK=F KAlg= 0 I1Cent=           0 FoldK=F
 IRaf= 920000000 NMat=       1 IRICut=       1 DoRegI=T DoRafI=F ISym2E= 0 IDoP0=0 IntGTp=1.
 FoFCou: FMM=F IPFlag=           0 FMFlag=      100000 FMFlg1=           0
         NFxFlg=           0 DoJE=F BraDBF=F KetDBF=F FulRan=T
         wScrn=  0.000000 ICntrl=         0 IOpCl=  0 I1Cent=           0 NGrid=           0
         NMat0=    1 NMatS0=      1 NMatT0=    0 NMatD0=    1 NMtDS0=    0 NMtDT0=    0
 Symmetry not used in FoFCou.
 E= -686.383180103971    
 DIIS: error= 1.86D-02 at cycle   1 NSaved=   1.
 NSaved= 1 IEnMin= 1 EnMin= -686.383180103971     IErMin= 1 ErrMin= 1.86D-02
 ErrMax= 1.86D-02  0.00D+00 EMaxC= 1.00D-01 BMatC= 3.98D-01 BMatP= 3.98D-01
 IDIUse=3 WtCom= 8.14D-01 WtEn= 1.86D-01
 Coeff-Com:  0.100D+01
 Coeff-En:   0.100D+01
 Coeff:      0.100D+01
 Gap=     0.285 Goal=   None    Shift=    0.000
 GapD=    0.285 DampG=1.000 DampE=0.500 DampFc=0.5000 IDamp=-1.
 Damping current iteration by 5.00D-01
 RMSDP=1.06D-02 MaxDP=1.16D+00              OVMax= 1.48D-01

 Cycle   2  Pass 1  IDiag  1:
 RMSU=  5.30D-03    CP:  1.01D+00
 E= -686.477941196208     Delta-E=       -0.094761092237 Rises=F Damp=T
 DIIS: error= 6.41D-03 at cycle   2 NSaved=   2.
 NSaved= 2 IEnMin= 2 EnMin= -686.477941196208     IErMin= 2 ErrMin= 6.41D-03
 ErrMax= 6.41D-03  0.00D+00 EMaxC= 1.00D-01 BMatC= 3.32D-02 BMatP= 3.98D-01
 IDIUse=3 WtCom= 9.36D-01 WtEn= 6.41D-02
 Coeff-Com:  0.125D+00 0.875D+00
 Coeff-En:   0.249D+00 0.751D+00
 Coeff:      0.133D+00 0.867D+00
 Gap=     0.279 Goal=   None    Shift=    0.000
 RMSDP=4.24D-03 MaxDP=6.36D-01 DE=-9.48D-02 OVMax= 9.19D-02

 Cycle   3  Pass 1  IDiag  1:
 RMSU=  2.64D-03    CP:  8.86D-01  6.97D-01
 E= -686.634100008210     Delta-E=       -0.156158812002 Rises=F Damp=F
 DIIS: error= 5.14D-03 at cycle   3 NSaved=   3.
 NSaved= 3 IEnMin= 3 EnMin= -686.634100008210     IErMin= 3 ErrMin= 5.14D-03
 ErrMax= 5.14D-03  0.00D+00 EMaxC= 1.00D-01 BMatC= 1.37D-02 BMatP= 3.32D-02
 IDIUse=3 WtCom= 9.49D-01 WtEn= 5.14D-02
 Coeff-Com: -0.238D-01 0.364D+00 0.660D+00
 Coeff-En:   0.000D+00 0.000D+00 0.100D+01
 Coeff:     -0.226D-01 0.345D+00 0.678D+00
 Gap=     0.279 Goal=   None    Shift=    0.000
 RMSDP=1.22D-03 MaxDP=1.23D-01 DE=-1.56D-01 OVMax= 1.76D-02

 Cycle   4  Pass 1  IDiag  1:
 RMSU=  8.81D-04    CP:  9.15D-01  7.39D-01  8.32D-01
 E= -686.642279523077     Delta-E=       -0.008179514866 Rises=F Damp=F
 DIIS: error= 2.01D-03 at cycle   4 NSaved=   4.
 NSaved= 4 IEnMin= 4 EnMin= -686.642279523077     IErMin= 4 ErrMin= 2.01D-03
 ErrMax= 2.01D-03  0.00D+00 EMaxC= 1.00D-01 BMatC= 2.70D-03 BMatP= 1.37D-02
 IDIUse=3 WtCom= 9.80D-01 WtEn= 2.01D-02
 Coeff-Com: -0.220D-01 0.976D-01 0.365D+00 0.559D+00
 Coeff-En:   0.000D+00 0.000D+00 0.178D+00 0.822D+00
 Coeff:     -0.216D-01 0.956D-01 0.361D+00 0.564D+00
 Gap=     0.268 Goal=   None    Shift=    0.000
 RMSDP=8.47D-04 MaxDP=1.01D-01 DE=-8.18D-03 OVMax= 6.76D-03

 Cycle   5  Pass 1  IDiag  1:
 RMSU=  2.25D-04    CP:  8.88D-01  7.25D-01  9.48D-01  5.22D-01
 E= -686.644709108707     Delta-E=       -0.002429585630 Rises=F Damp=F
 DIIS: error= 4.05D-04 at cycle   5 NSaved=   5.
 NSaved= 5 IEnMin= 5 EnMin= -686.644709108707     IErMin= 5 ErrMin= 4.05D-04
 ErrMax= 4.05D-04  0.00D+00 EMaxC= 1.00D-01 BMatC= 6.16D-05 BMatP= 2.70D-03
 IDIUse=3 WtCom= 9.96D-01 WtEn= 4.05D-03
 Coeff-Com: -0.704D-02 0.192D-01 0.102D+00 0.214D+00 0.671D+00
 Coeff-En:   0.000D+00 0.000D+00 0.000D+00 0.000D+00 0.100D+01
 Coeff:     -0.701D-02 0.191D-01 0.102D+00 0.213D+00 0.673D+00
 Gap=     0.268 Goal=   None    Shift=    0.000
 RMSDP=7.73D-05 MaxDP=4.78D-03 DE=-2.43D-03 OVMax= 1.26D-03

 Cycle   6  Pass 1  IDiag  1:
 RMSU=  4.70D-05    CP:  8.90D-01  7.27D-01  9.43D-01  5.66D-01  8.62D-01
 E= -686.644741826426     Delta-E=       -0.000032717719 Rises=F Damp=F
 DIIS: error= 2.13D-04 at cycle   6 NSaved=   6.
 NSaved= 6 IEnMin= 6 EnMin= -686.644741826426     IErMin= 6 ErrMin= 2.13D-04
 ErrMax= 2.13D-04  0.00D+00 EMaxC= 1.00D-01 BMatC= 1.88D-05 BMatP= 6.16D-05
 IDIUse=3 WtCom= 9.98D-01 WtEn= 2.13D-03
 Coeff-Com: -0.271D-02 0.395D-02 0.350D-01 0.892D-01 0.408D+00 0.466D+00
 Coeff-En:   0.000D+00 0.000D+00 0.000D+00 0.000D+00 0.198D+00 0.802D+00
 Coeff:     -0.271D-02 0.394D-02 0.349D-01 0.890D-01 0.408D+00 0.467D+00
 Gap=     0.268 Goal=   None    Shift=    0.000
 RMSDP=2.09D-05 MaxDP=1.54D-03 DE=-3.27D-05 OVMax= 5.19D-04

 Cycle   7  Pass 1  IDiag  1:
 RMSU=  1.16D-05    CP:  8.90D-01  7.27D-01  9.42D-01  5.73D-01  8.55D-01
                    CP:  6.96D-01
 E= -686.644754738757     Delta-E=       -0.000012912331 Rises=F Damp=F
 DIIS: error= 1.96D-05 at cycle   7 NSaved=   7.
 NSaved= 7 IEnMin= 7 EnMin= -686.644754738757     IErMin= 7 ErrMin= 1.96D-05
 ErrMax= 1.96D-05  0.00D+00 EMaxC= 1.00D-01 BMatC= 2.60D-07 BMatP= 1.88D-05
 IDIUse=1 WtCom= 1.00D+00 WtEn= 0.00D+00
 Coeff-Com: -0.499D-03 0.270D-03 0.710D-02 0.209D-01 0.107D+00 0.160D+00
 Coeff-Com:  0.706D+00
 Coeff:     -0.499D-03 0.270D-03 0.710D-02 0.209D-01 0.107D+00 0.160D+00
 Coeff:      0.706D+00
 Gap=     0.268 Goal=   None    Shift=    0.000
 RMSDP=5.64D-06 MaxDP=6.56D-04 DE=-1.29D-05 OVMax= 8.28D-05

 Cycle   8  Pass 1  IDiag  1:
 RMSU=  3.70D-06    CP:  8.90D-01  7.27D-01  9.43D-01  5.72D-01  8.64D-01
                    CP:  6.76D-01  9.18D-01
 E= -686.644754893659     Delta-E=       -0.000000154902 Rises=F Damp=F
 DIIS: error= 8.90D-06 at cycle   8 NSaved=   8.
 NSaved= 8 IEnMin= 8 EnMin= -686.644754893659     IErMin= 8 ErrMin= 8.90D-06
 ErrMax= 8.90D-06  0.00D+00 EMaxC= 1.00D-01 BMatC= 5.72D-08 BMatP= 2.60D-07
 IDIUse=1 WtCom= 1.00D+00 WtEn= 0.00D+00
 Coeff-Com:  0.729D-04-0.315D-03-0.449D-03 0.239D-03 0.356D-02 0.206D-01
 Coeff-Com:  0.348D+00 0.628D+00
 Coeff:      0.729D-04-0.315D-03-0.449D-03 0.239D-03 0.356D-02 0.206D-01
 Coeff:      0.348D+00 0.628D+00
 Gap=     0.268 Goal=   None    Shift=    0.000
 RMSDP=1.97D-06 MaxDP=2.06D-04 DE=-1.55D-07 OVMax= 3.03D-05

 Cycle   9  Pass 1  IDiag  1:
 RMSU=  1.12D-06    CP:  8.90D-01  7.27D-01  9.43D-01  5.73D-01  8.65D-01
                    CP:  6.80D-01  9.78D-01  8.31D-01
 E= -686.644754939583     Delta-E=       -0.000000045924 Rises=F Damp=F
 DIIS: error= 1.66D-06 at cycle   9 NSaved=   9.
 NSaved= 9 IEnMin= 9 EnMin= -686.644754939583     IErMin= 9 ErrMin= 1.66D-06
 ErrMax= 1.66D-06  0.00D+00 EMaxC= 1.00D-01 BMatC= 2.18D-09 BMatP= 5.72D-08
 IDIUse=1 WtCom= 1.00D+00 WtEn= 0.00D+00
 Coeff-Com:  0.440D-04-0.127D-03-0.493D-03-0.783D-03-0.354D-02 0.601D-03
 Coeff-Com:  0.105D+00 0.256D+00 0.644D+00
 Coeff:      0.440D-04-0.127D-03-0.493D-03-0.783D-03-0.354D-02 0.601D-03
 Coeff:      0.105D+00 0.256D+00 0.644D+00
 Gap=     0.268 Goal=   None    Shift=    0.000
 RMSDP=6.08D-07 MaxDP=4.52D-05 DE=-4.59D-08 OVMax= 7.56D-06

 Cycle  10  Pass 1  IDiag  1:
 RMSU=  2.82D-07    CP:  8.90D-01  7.27D-01  9.43D-01  5.73D-01  8.64D-01
                    CP:  6.87D-01  9.90D-01  8.18D-01  7.62D-01
 E= -686.644754941027     Delta-E=       -0.000000001444 Rises=F Damp=F
 DIIS: error= 7.74D-07 at cycle  10 NSaved=  10.
 NSaved=10 IEnMin=10 EnMin= -686.644754941027     IErMin=10 ErrMin= 7.74D-07
 ErrMax= 7.74D-07  0.00D+00 EMaxC= 1.00D-01 BMatC= 3.73D-10 BMatP= 2.18D-09
 IDIUse=1 WtCom= 1.00D+00 WtEn= 0.00D+00
 Coeff-Com:  0.150D-04-0.378D-04-0.231D-03-0.441D-03-0.221D-02-0.158D-02
 Coeff-Com:  0.249D-01 0.795D-01 0.343D+00 0.557D+00
 Coeff:      0.150D-04-0.378D-04-0.231D-03-0.441D-03-0.221D-02-0.158D-02
 Coeff:      0.249D-01 0.795D-01 0.343D+00 0.557D+00
 Gap=     0.268 Goal=   None    Shift=    0.000
 RMSDP=1.68D-07 MaxDP=1.49D-05 DE=-1.44D-09 OVMax= 2.75D-06

 Cycle  11  Pass 1  IDiag  1:
 RMSU=  6.86D-08    CP:  8.90D-01  7.27D-01  9.43D-01  5.73D-01  8.64D-01
                    CP:  6.86D-01  9.89D-01  8.32D-01  7.91D-01  7.04D-01
 E= -686.644754941297     Delta-E=       -0.000000000269 Rises=F Damp=F
 DIIS: error= 1.25D-07 at cycle  11 NSaved=  11.
 NSaved=11 IEnMin=11 EnMin= -686.644754941297     IErMin=11 ErrMin= 1.25D-07
 ErrMax= 1.25D-07  0.00D+00 EMaxC= 1.00D-01 BMatC= 1.91D-11 BMatP= 3.73D-10
 IDIUse=1 WtCom= 1.00D+00 WtEn= 0.00D+00
 Coeff-Com:  0.812D-06-0.167D-05-0.488D-04-0.106D-03-0.537D-03-0.710D-03
 Coeff-Com: -0.569D-04 0.693D-02 0.776D-01 0.233D+00 0.684D+00
 Coeff:      0.812D-06-0.167D-05-0.488D-04-0.106D-03-0.537D-03-0.710D-03
 Coeff:     -0.569D-04 0.693D-02 0.776D-01 0.233D+00 0.684D+00
 Gap=     0.268 Goal=   None    Shift=    0.000
 RMSDP=4.24D-08 MaxDP=2.67D-06 DE=-2.69D-10 OVMax= 5.94D-07

 Cycle  12  Pass 1  IDiag  1:
 RMSU=  2.82D-08    CP:  8.90D-01  7.27D-01  9.43D-01  5.73D-01  8.64D-01
                    CP:  6.86D-01  9.90D-01  8.35D-01  8.02D-01  7.10D-01
                    CP:  8.49D-01
 E= -686.644754941317     Delta-E=       -0.000000000021 Rises=F Damp=F
 DIIS: error= 3.49D-08 at cycle  12 NSaved=  12.
 NSaved=12 IEnMin=12 EnMin= -686.644754941317     IErMin=12 ErrMin= 3.49D-08
 ErrMax= 3.49D-08  0.00D+00 EMaxC= 1.00D-01 BMatC= 8.62D-13 BMatP= 1.91D-11
 IDIUse=1 WtCom= 1.00D+00 WtEn= 0.00D+00
 Coeff-Com: -0.698D-06 0.176D-05-0.424D-05-0.121D-04-0.575D-04-0.137D-03
 Coeff-Com: -0.150D-02-0.227D-02 0.750D-02 0.520D-01 0.250D+00 0.694D+00
 Coeff:     -0.698D-06 0.176D-05-0.424D-05-0.121D-04-0.575D-04-0.137D-03
 Coeff:     -0.150D-02-0.227D-02 0.750D-02 0.520D-01 0.250D+00 0.694D+00
 Gap=     0.268 Goal=   None    Shift=    0.000
 RMSDP=1.34D-08 MaxDP=1.50D-06 DE=-2.07D-11 OVMax= 1.38D-07

 Cycle  13  Pass 1  IDiag  1:
 RMSU=  6.03D-09    CP:  8.90D-01  7.27D-01  9.43D-01  5.73D-01  8.64D-01
                    CP:  6.86D-01  9.90D-01  8.35D-01  8.02D-01  7.28D-01
                    CP:  8.76D-01  7.78D-01
 E= -686.644754941318     Delta-E=       -0.000000000000 Rises=F Damp=F
 DIIS: error= 9.59D-09 at cycle  13 NSaved=  13.
 NSaved=13 IEnMin=13 EnMin= -686.644754941318     IErMin=13 ErrMin= 9.59D-09
 ErrMax= 9.59D-09  0.00D+00 EMaxC= 1.00D-01 BMatC= 8.29D-14 BMatP= 8.62D-13
 IDIUse=1 WtCom= 1.00D+00 WtEn= 0.00D+00
 Coeff-Com: -0.359D-06 0.867D-06 0.167D-05 0.232D-05 0.139D-04-0.395D-05
 Coeff-Com: -0.660D-03-0.150D-02-0.231D-02 0.589D-02 0.599D-01 0.295D+00
 Coeff-Com:  0.644D+00
 Coeff:     -0.359D-06 0.867D-06 0.167D-05 0.232D-05 0.139D-04-0.395D-05
 Coeff:     -0.660D-03-0.150D-02-0.231D-02 0.589D-02 0.599D-01 0.295D+00
 Coeff:      0.644D+00
 Gap=     0.268 Goal=   None    Shift=    0.000
 RMSDP=2.55D-09 MaxDP=3.34D-07 DE=-4.55D-13 OVMax= 4.24D-08

 SCF Done:  E(RPBE1PBE) =  -686.644754941     A.U. after   13 cycles
            NFock= 13  Conv=0.26D-08     -V/T= 2.0036
 KE= 6.841509595223D+02 PE=-3.261059109180D+03 EE= 1.066296862957D+03
 Leave Link  502 at Fri Nov  1 10:56:38 2024, MaxMem=  4294967296 cpu:             477.7 elap:              17.1
 (Enter /home/matma/Software/gaussian16.B01_files/AVX2/tar//g16/l801.exe)
 DoSCS=F DFT=T ScalE2(SS,OS)=  1.000000  1.000000
 Range of M.O.s used for correlation:     1   336
 NBasis=   336 NAE=    48 NBE=    48 NFC=     0 NFV=     0
 NROrb=    336 NOA=    48 NOB=    48 NVA=   288 NVB=   288

 **** Warning!!: The largest alpha MO coefficient is  0.80190270D+02

 Leave Link  801 at Fri Nov  1 10:56:38 2024, MaxMem=  4294967296 cpu:               0.4 elap:               0.0
 (Enter /home/matma/Software/gaussian16.B01_files/AVX2/tar//g16/l1101.exe)
 Using compressed storage, NAtomX=    24.
 Will process     25 centers per pass.
 R6Disp: Adding Grimme-D3 dispersion energy 1st derivatives to the gradient.
 Leave Link 1101 at Fri Nov  1 10:56:38 2024, MaxMem=  4294967296 cpu:               6.8 elap:               0.3
 (Enter /home/matma/Software/gaussian16.B01_files/AVX2/tar//g16/l1102.exe)
 Symmetrizing basis deriv contribution to polar:
 IMax=3 JMax=2 DiffMx= 0.00D+00
 Leave Link 1102 at Fri Nov  1 10:56:38 2024, MaxMem=  4294967296 cpu:               0.7 elap:               0.0
 (Enter /home/matma/Software/gaussian16.B01_files/AVX2/tar//g16/l1110.exe)
 Forming Gx(P) for the SCF density, NAtomX=    24.
 Integral derivatives from FoFJK, PRISM(SPDF).
 Do as many integral derivatives as possible in FoFJK.
 G2DrvN: MDV=    4294965240.
 G2DrvN: will do    25 centers at a time, making    1 passes.
 Calling FoFCou, ICntrl=  3107 FMM=F I1Cent=   0 AccDes= 0.00D+00.
 FoFJK:  IHMeth= 1 ICntrl=    3107 DoSepK=F KAlg= 0 I1Cent=           0 FoldK=F
 IRaf=         0 NMat=       1 IRICut=       1 DoRegI=T DoRafI=F ISym2E= 0 IDoP0=0 IntGTp=1.
 FoFCou: FMM=F IPFlag=           0 FMFlag=      100000 FMFlg1=           0
         NFxFlg=           0 DoJE=F BraDBF=F KetDBF=F FulRan=T
         wScrn=  0.000000 ICntrl=      3107 IOpCl=  0 I1Cent=           0 NGrid=           0
         NMat0=    1 NMatS0=      1 NMatT0=    0 NMatD0=    1 NMtDS0=    0 NMtDT0=    0
 Symmetry not used in FoFCou.
 End of G2Drv F.D. properties file   721 does not exist.
 End of G2Drv F.D. properties file   722 does not exist.
 End of G2Drv F.D. properties file   788 does not exist.
 Leave Link 1110 at Fri Nov  1 10:57:14 2024, MaxMem=  4294967296 cpu:            1005.3 elap:              35.9
 (Enter /home/matma/Software/gaussian16.B01_files/AVX2/tar//g16/l1002.exe)
 Minotr:  Closed shell wavefunction.
          IDoAtm=111111111111111111111111
          Direct CPHF calculation.
          Differentiating once with respect to nuclear coordinates.
          Requested convergence is 1.0D-08 RMS, and 1.0D-07 maximum.
          Secondary convergence is 1.0D-12 RMS, and 1.0D-12 maximum.
          NewPWx=T KeepS1=F KeepF1=F KeepIn=T MapXYZ=F SortEE=F KeepMc=T.
        16729 words used for storage of precomputed grid.
 Keep R1 ints in memory in canonical form, NReq=1635073619.
 FoFCou: FMM=F IPFlag=           0 FMFlag=           0 FMFlg1=           0
         NFxFlg=           0 DoJE=F BraDBF=F KetDBF=F FulRan=T
         wScrn=  0.000000 ICntrl=       600 IOpCl=  0 I1Cent=           0 NGrid=           0
         NMat0=    1 NMatS0=  56616 NMatT0=    0 NMatD0=    1 NMtDS0=    0 NMtDT0=    0
 Symmetry not used in FoFCou.
 Two-electron integral symmetry not used.
          MDV=    4294967296 using IRadAn=   99302.
          Solving linear equations simultaneously, MaxMat=       0.
          There are    75 degrees of freedom in the 1st order CPHF.  IDoFFX=6 NUNeed=     0.
     69 vectors produced by pass  0 Test12= 1.84D-14 1.33D-09 XBig12= 1.47D-01 7.49D-02.
 AX will form    69 AO Fock derivatives at one time.
     69 vectors produced by pass  1 Test12= 1.84D-14 1.33D-09 XBig12= 8.61D-03 8.00D-03.
     69 vectors produced by pass  2 Test12= 1.84D-14 1.33D-09 XBig12= 1.03D-04 1.30D-03.
     69 vectors produced by pass  3 Test12= 1.84D-14 1.33D-09 XBig12= 3.51D-07 6.16D-05.
     69 vectors produced by pass  4 Test12= 1.84D-14 1.33D-09 XBig12= 9.54D-10 2.93D-06.
     68 vectors produced by pass  5 Test12= 1.84D-14 1.33D-09 XBig12= 1.72D-12 1.37D-07.
     26 vectors produced by pass  6 Test12= 1.84D-14 1.33D-09 XBig12= 2.60D-15 4.45D-09.
 InvSVY:  IOpt=1 It=  1 EMax= 4.44D-16
 Solved reduced A of dimension   439 with    75 vectors.
 End of Minotr F.D. properties file   721 does not exist.
 End of Minotr F.D. properties file   722 does not exist.
 End of Minotr F.D. properties file   788 does not exist.
 Leave Link 1002 at Fri Nov  1 10:59:01 2024, MaxMem=  4294967296 cpu:            2986.1 elap:             106.7
 (Enter /home/matma/Software/gaussian16.B01_files/AVX2/tar//g16/l601.exe)
 Copying SCF densities to generalized density rwf, IOpCl= 0 IROHF=0.

 **********************************************************************

            Population analysis using the SCF Density.

 **********************************************************************

 Orbital symmetries:
       Occupied  (A) (A) (A) (A) (A) (A) (A) (A) (A) (A) (A) (A)
                 (A) (A) (A) (A) (A) (A) (A) (A) (A) (A) (A) (A)
                 (A) (A) (A) (A) (A) (A) (A) (A) (A) (A) (A) (A)
                 (A) (A) (A) (A) (A) (A) (A) (A) (A) (A) (A) (A)
       Virtual   (A) (A) (A) (A) (A) (A) (A) (A) (A) (A) (A) (A)
                 (A) (A) (A) (A) (A) (A) (A) (A) (A) (A) (A) (A)
                 (A) (A) (A) (A) (A) (A) (A) (A) (A) (A) (A) (A)
                 (A) (A) (A) (A) (A) (A) (A) (A) (A) (A) (A) (A)
                 (A) (A) (A) (A) (A) (A) (A) (A) (A) (A) (A) (A)
                 (A) (A) (A) (A) (A) (A) (A) (A) (A) (A) (A) (A)
                 (A) (A) (A) (A) (A) (A) (A) (A) (A) (A) (A) (A)
                 (A) (A) (A) (A) (A) (A) (A) (A) (A) (A) (A) (A)
                 (A) (A) (A) (A) (A) (A) (A) (A) (A) (A) (A) (A)
                 (A) (A) (A) (A) (A) (A) (A) (A) (A) (A) (A) (A)
                 (A) (A) (A) (A) (A) (A) (A) (A) (A) (A) (A) (A)
                 (A) (A) (A) (A) (A) (A) (A) (A) (A) (A) (A) (A)
                 (A) (A) (A) (A) (A) (A) (A) (A) (A) (A) (A) (A)
                 (A) (A) (A) (A) (A) (A) (A) (A) (A) (A) (A) (A)
                 (A) (A) (A) (A) (A) (A) (A) (A) (A) (A) (A) (A)
                 (A) (A) (A) (A) (A) (A) (A) (A) (A) (A) (A) (A)
                 (A) (A) (A) (A) (A) (A) (A) (A) (A) (A) (A) (A)
                 (A) (A) (A) (A) (A) (A) (A) (A) (A) (A) (A) (A)
                 (A) (A) (A) (A) (A) (A) (A) (A) (A) (A) (A) (A)
                 (A) (A) (A) (A) (A) (A) (A) (A) (A) (A) (A) (A)
                 (A) (A) (A) (A) (A) (A) (A) (A) (A) (A) (A) (A)
                 (A) (A) (A) (A) (A) (A) (A) (A) (A) (A) (A) (A)
                 (A) (A) (A) (A) (A) (A) (A) (A) (A) (A) (A) (A)
                 (A) (A) (A) (A) (A) (A) (A) (A) (A) (A) (A) (A)
 The electronic state is 1-A.
 Alpha  occ. eigenvalues --  -19.24143 -19.23926 -19.22949 -19.22306 -19.21995
 Alpha  occ. eigenvalues --  -19.20593 -10.35047 -10.30301 -10.30189 -10.30076
 Alpha  occ. eigenvalues --  -10.29996 -10.27945  -1.12539  -1.09510  -1.08028
 Alpha  occ. eigenvalues --   -1.06396  -1.05853  -1.04860  -0.82914  -0.81023
 Alpha  occ. eigenvalues --   -0.72606  -0.69386  -0.66147  -0.64876  -0.58486
 Alpha  occ. eigenvalues --   -0.56487  -0.55604  -0.54524  -0.53602  -0.51622
 Alpha  occ. eigenvalues --   -0.50132  -0.49200  -0.47048  -0.45247  -0.44880
 Alpha  occ. eigenvalues --   -0.43437  -0.41252  -0.40108  -0.38666  -0.38288
 Alpha  occ. eigenvalues --   -0.36778  -0.35946  -0.34529  -0.33340  -0.32451
 Alpha  occ. eigenvalues --   -0.30527  -0.29555  -0.28577
 Alpha virt. eigenvalues --   -0.01749   0.00352   0.01049   0.01489   0.02821
 Alpha virt. eigenvalues --    0.03355   0.03991   0.04609   0.05678   0.06221
 Alpha virt. eigenvalues --    0.07975   0.08364   0.09402   0.09617   0.09740
 Alpha virt. eigenvalues --    0.10623   0.10952   0.12573   0.12617   0.13117
 Alpha virt. eigenvalues --    0.13657   0.14639   0.14859   0.15599   0.16224
 Alpha virt. eigenvalues --    0.16883   0.17407   0.18150   0.18328   0.18769
 Alpha virt. eigenvalues --    0.19321   0.19595   0.19900   0.20572   0.21633
 Alpha virt. eigenvalues --    0.21759   0.22657   0.22873   0.23155   0.23837
 Alpha virt. eigenvalues --    0.23972   0.24564   0.25529   0.26326   0.26427
 Alpha virt. eigenvalues --    0.27012   0.27704   0.28504   0.28919   0.29210
 Alpha virt. eigenvalues --    0.30001   0.30890   0.31562   0.32087   0.32196
 Alpha virt. eigenvalues --    0.32611   0.33056   0.33237   0.33970   0.34413
 Alpha virt. eigenvalues --    0.34997   0.35341   0.36134   0.37144   0.37223
 Alpha virt. eigenvalues --    0.38220   0.38959   0.40389   0.41491   0.41869
 Alpha virt. eigenvalues --    0.42465   0.45848   0.49776   0.50534   0.51845
 Alpha virt. eigenvalues --    0.53300   0.53709   0.54609   0.55322   0.56101
 Alpha virt. eigenvalues --    0.57022   0.58717   0.60054   0.61953   0.63372
 Alpha virt. eigenvalues --    0.63942   0.65226   0.66090   0.67280   0.68014
 Alpha virt. eigenvalues --    0.68380   0.69809   0.71619   0.71818   0.73045
 Alpha virt. eigenvalues --    0.74330   0.75050   0.75637   0.78223   0.79966
 Alpha virt. eigenvalues --    0.81404   0.88716   0.90813   0.91818   0.94755
 Alpha virt. eigenvalues --    0.96589   0.99365   1.02421   1.03652   1.06618
 Alpha virt. eigenvalues --    1.08412   1.09082   1.11011   1.13324   1.13890
 Alpha virt. eigenvalues --    1.15304   1.16072   1.16816   1.17430   1.18049
 Alpha virt. eigenvalues --    1.19776   1.20920   1.22028   1.23282   1.23853
 Alpha virt. eigenvalues --    1.24844   1.25197   1.27547   1.29690   1.31790
 Alpha virt. eigenvalues --    1.33399   1.35697   1.38916   1.39694   1.41111
 Alpha virt. eigenvalues --    1.43003   1.45602   1.46876   1.48441   1.48778
 Alpha virt. eigenvalues --    1.50500   1.52255   1.53639   1.53950   1.55326
 Alpha virt. eigenvalues --    1.56740   1.58540   1.59568   1.60504   1.61737
 Alpha virt. eigenvalues --    1.62729   1.64802   1.66662   1.68191   1.69369
 Alpha virt. eigenvalues --    1.70428   1.72730   1.74412   1.75492   1.76429
 Alpha virt. eigenvalues --    1.79082   1.79405   1.80978   1.82399   1.84156
 Alpha virt. eigenvalues --    1.86321   1.87541   1.89161   1.91709   1.95052
 Alpha virt. eigenvalues --    1.97607   1.98320   2.01333   2.04355   2.06767
 Alpha virt. eigenvalues --    2.06908   2.07699   2.09072   2.12307   2.13530
 Alpha virt. eigenvalues --    2.13951   2.14903   2.17081   2.17499   2.18499
 Alpha virt. eigenvalues --    2.19519   2.23592   2.25687   2.31810   2.33664
 Alpha virt. eigenvalues --    2.36479   2.48323   2.49545   2.52392   2.55328
 Alpha virt. eigenvalues --    2.55919   2.58110   2.58938   2.61701   2.63529
 Alpha virt. eigenvalues --    2.65190   2.69853   2.71251   2.73654   2.77738
 Alpha virt. eigenvalues --    2.80897   2.83556   2.85635   2.87090   2.90324
 Alpha virt. eigenvalues --    2.90882   2.93624   2.94709   2.96660   2.99303
 Alpha virt. eigenvalues --    3.02057   3.02563   3.06099   3.08036   3.10186
 Alpha virt. eigenvalues --    3.11330   3.13137   3.13518   3.14837   3.15728
 Alpha virt. eigenvalues --    3.16072   3.17388   3.19687   3.20494   3.24274
 Alpha virt. eigenvalues --    3.25621   3.26324   3.31710   3.33593   3.35463
 Alpha virt. eigenvalues --    3.35895   3.37728   3.43638   3.52822   3.55978
 Alpha virt. eigenvalues --    3.77886   3.81756   3.82853   3.85192   3.89656
 Alpha virt. eigenvalues --    3.91699   3.93880   3.96161   4.01301   4.01678
 Alpha virt. eigenvalues --    4.03896   4.07328   4.10758   4.17933   4.19146
 Alpha virt. eigenvalues --    4.24891   4.30655   4.33023   5.11091   5.13151
 Alpha virt. eigenvalues --    5.13968   5.14798   5.16038   5.17057   5.34893
 Alpha virt. eigenvalues --    5.40035   5.41808   5.43022   5.45865   5.46941
 Alpha virt. eigenvalues --    5.59424   5.64152   5.67180   5.67645   5.69980
 Alpha virt. eigenvalues --    5.80978  23.80991  23.85245  23.88835  23.90002
 Alpha virt. eigenvalues --   23.92946  23.96744  50.02644  50.03311  50.05517
 Alpha virt. eigenvalues --   50.07347  50.08331  50.11414
          Condensed to atoms (all electrons):
               1          2          3          4          5          6
     1  O    8.194558   0.009770  -0.008682   0.015276  -0.027462  -0.010905
     2  O    0.009770   8.042732  -0.004950  -0.000117   0.000625  -0.003238
     3  O   -0.008682  -0.004950   7.948958   0.011600   0.000684   0.000228
     4  O    0.015276  -0.000117   0.011600   7.927653   0.030598   0.000014
     5  O   -0.027462   0.000625   0.000684   0.030598   7.853284   0.001339
     6  O   -0.010905  -0.003238   0.000228   0.000014   0.001339   7.991766
     7  C   -0.167928   0.123197  -0.204490   0.047187   0.039969   0.052117
     8  C    0.044716  -0.256825   0.429961  -0.197751  -0.030194  -0.006869
     9  C    0.255962   0.044640   0.046761   0.025241   0.004631  -0.037656
    10  C   -0.043589   0.121645  -0.200693   0.293959  -0.077978   0.004227
    11  C    0.005757  -0.010522   0.053616  -0.118528   0.232239   0.007723
    12  C   -0.098976  -0.010153  -0.001666   0.001480   0.003697   0.117924
    13  H    0.001178  -0.060145  -0.012380  -0.000689   0.000240  -0.000470
    14  H    0.001746  -0.017863  -0.058538  -0.013316  -0.000335   0.000117
    15  H   -0.044371  -0.008074  -0.001633   0.000179   0.000671  -0.001455
    16  H    0.001745  -0.000581  -0.012429  -0.062585  -0.021094   0.000021
    17  H   -0.045642   0.001053  -0.001617  -0.011847  -0.059368  -0.000367
    18  H   -0.017118  -0.006783  -0.000132  -0.000010   0.000254  -0.048152
    19  H    0.014012   0.016054   0.000088  -0.000014   0.000007  -0.050619
    20  H    0.000908   0.231186  -0.002401  -0.000048  -0.000013  -0.000226
    21  H    0.000196   0.018012   0.235375   0.001809   0.000056   0.000005
    22  H    0.000405  -0.000063  -0.003159   0.255687  -0.008132  -0.000012
    23  H   -0.001532  -0.000024  -0.000412  -0.008786   0.267772  -0.000123
    24  H    0.030145   0.000303  -0.000045  -0.000034  -0.000515   0.255625
               7          8          9         10         11         12
     1  O   -0.167928   0.044716   0.255962  -0.043589   0.005757  -0.098976
     2  O    0.123197  -0.256825   0.044640   0.121645  -0.010522  -0.010153
     3  O   -0.204490   0.429961   0.046761  -0.200693   0.053616  -0.001666
     4  O    0.047187  -0.197751   0.025241   0.293959  -0.118528   0.001480
     5  O    0.039969  -0.030194   0.004631  -0.077978   0.232239   0.003697
     6  O    0.052117  -0.006869  -0.037656   0.004227   0.007723   0.117924
     7  C    9.907256  -1.435610  -2.217322  -0.828297   0.287139   0.129991
     8  C   -1.435610   9.530354   0.353582  -2.591682   0.596773  -0.645963
     9  C   -2.217322   0.353582   8.991232   0.592658  -0.756983  -1.111352
    10  C   -0.828297  -2.591682   0.592658   9.522459  -1.520805   0.345056
    11  C    0.287139   0.596773  -0.756983  -1.520805   7.285377  -0.257657
    12  C    0.129991  -0.645963  -1.111352   0.345056  -0.257657   7.011219
    13  H    0.512848   0.013665  -0.103230  -0.039611   0.001494  -0.001500
    14  H    0.054147   0.486031  -0.058146  -0.091198  -0.015769   0.007829
    15  H   -0.049193   0.021157   0.455162   0.003181  -0.029126  -0.056132
    16  H   -0.050113   0.003785  -0.013482   0.516303  -0.054557  -0.002689
    17  H   -0.037965  -0.010202   0.001240   0.010224   0.416799   0.004219
    18  H   -0.005879   0.027147   0.156015  -0.011705   0.008482   0.193148
    19  H   -0.026581  -0.013155  -0.158134   0.007081  -0.000850   0.560185
    20  H    0.141885  -0.006719  -0.070717  -0.021482   0.011912  -0.012437
    21  H    0.000076  -0.037350   0.017480   0.029004  -0.008722   0.003267
    22  H   -0.014667  -0.021572  -0.009000   0.135297  -0.042460  -0.001794
    23  H    0.001326   0.039356  -0.022771  -0.074023   0.069805  -0.001514
    24  H    0.014461   0.000126  -0.052764   0.001136  -0.001979   0.033402
              13         14         15         16         17         18
     1  O    0.001178   0.001746  -0.044371   0.001745  -0.045642  -0.017118
     2  O   -0.060145  -0.017863  -0.008074  -0.000581   0.001053  -0.006783
     3  O   -0.012380  -0.058538  -0.001633  -0.012429  -0.001617  -0.000132
     4  O   -0.000689  -0.013316   0.000179  -0.062585  -0.011847  -0.000010
     5  O    0.000240  -0.000335   0.000671  -0.021094  -0.059368   0.000254
     6  O   -0.000470   0.000117  -0.001455   0.000021  -0.000367  -0.048152
     7  C    0.512848   0.054147  -0.049193  -0.050113  -0.037965  -0.005879
     8  C    0.013665   0.486031   0.021157   0.003785  -0.010202   0.027147
     9  C   -0.103230  -0.058146   0.455162  -0.013482   0.001240   0.156015
    10  C   -0.039611  -0.091198   0.003181   0.516303   0.010224  -0.011705
    11  C    0.001494  -0.015769  -0.029126  -0.054557   0.416799   0.008482
    12  C   -0.001500   0.007829  -0.056132  -0.002689   0.004219   0.193148
    13  H    0.442138   0.002966   0.003375   0.001837   0.000079   0.002753
    14  H    0.002966   0.532288  -0.001115   0.003969  -0.000953  -0.000050
    15  H    0.003375  -0.001115   0.500440   0.000056   0.008991   0.006392
    16  H    0.001837   0.003969   0.000056   0.459168   0.003447   0.000051
    17  H    0.000079  -0.000953   0.008991   0.003447   0.527702  -0.000004
    18  H    0.002753  -0.000050   0.006392   0.000051  -0.000004   0.559569
    19  H   -0.000011  -0.000027  -0.006119   0.000009   0.000084  -0.036764
    20  H    0.006140   0.003356   0.001265   0.000079  -0.000177   0.000180
    21  H   -0.001884  -0.006174   0.000024  -0.000301  -0.000068  -0.000012
    22  H    0.000120   0.002616  -0.000014   0.004919   0.001271   0.000001
    23  H    0.000018   0.000066   0.000018   0.009218   0.007251   0.000006
    24  H    0.000167  -0.000033   0.000412   0.000008   0.000558  -0.007264
              19         20         21         22         23         24
     1  O    0.014012   0.000908   0.000196   0.000405  -0.001532   0.030145
     2  O    0.016054   0.231186   0.018012  -0.000063  -0.000024   0.000303
     3  O    0.000088  -0.002401   0.235375  -0.003159  -0.000412  -0.000045
     4  O   -0.000014  -0.000048   0.001809   0.255687  -0.008786  -0.000034
     5  O    0.000007  -0.000013   0.000056  -0.008132   0.267772  -0.000515
     6  O   -0.050619  -0.000226   0.000005  -0.000012  -0.000123   0.255625
     7  C   -0.026581   0.141885   0.000076  -0.014667   0.001326   0.014461
     8  C   -0.013155  -0.006719  -0.037350  -0.021572   0.039356   0.000126
     9  C   -0.158134  -0.070717   0.017480  -0.009000  -0.022771  -0.052764
    10  C    0.007081  -0.021482   0.029004   0.135297  -0.074023   0.001136
    11  C   -0.000850   0.011912  -0.008722  -0.042460   0.069805  -0.001979
    12  C    0.560185  -0.012437   0.003267  -0.001794  -0.001514   0.033402
    13  H   -0.000011   0.006140  -0.001884   0.000120   0.000018   0.000167
    14  H   -0.000027   0.003356  -0.006174   0.002616   0.000066  -0.000033
    15  H   -0.006119   0.001265   0.000024  -0.000014   0.000018   0.000412
    16  H    0.000009   0.000079  -0.000301   0.004919   0.009218   0.000008
    17  H    0.000084  -0.000177  -0.000068   0.001271   0.007251   0.000558
    18  H   -0.036764   0.000180  -0.000012   0.000001   0.000006  -0.007264
    19  H    0.492660  -0.000992  -0.000013   0.000001   0.000001   0.006614
    20  H   -0.000992   0.479944  -0.002057   0.000117   0.000000  -0.000018
    21  H   -0.000013  -0.002057   0.494092   0.000002  -0.000001  -0.000002
    22  H    0.000001   0.000117   0.000002   0.471777   0.000898   0.000002
    23  H    0.000001   0.000000  -0.000001   0.000898   0.480142   0.000092
    24  H    0.006614  -0.000018  -0.000002   0.000002   0.000092   0.465833
 Mulliken charges:
               1
     1  O   -0.110169
     2  O   -0.229879
     3  O   -0.214043
     4  O   -0.196959
     5  O   -0.210976
     6  O   -0.271016
     7  C   -0.273553
     8  C   -0.292761
     9  C   -0.333045
    10  C   -0.081167
    11  C   -0.159160
    12  C   -0.209583
    13  H    0.230903
    14  H    0.168388
    15  H    0.195907
    16  H    0.213215
    17  H    0.185293
    18  H    0.179877
    19  H    0.196484
    20  H    0.240316
    21  H    0.257184
    22  H    0.227758
    23  H    0.233217
    24  H    0.253770
 Sum of Mulliken charges =  -0.00000
 Mulliken charges with hydrogens summed into heavy atoms:
               1
     1  O   -0.110169
     2  O    0.010437
     3  O    0.043141
     4  O    0.030799
     5  O    0.022241
     6  O   -0.017245
     7  C   -0.042650
     8  C   -0.124373
     9  C   -0.137138
    10  C    0.132048
    11  C    0.026133
    12  C    0.166777
 APT charges:
               1
     1  O   -0.308377
     2  O   -0.661289
     3  O   -0.763199
     4  O   -0.600810
     5  O   -0.489593
     6  O   -0.497052
     7  C   -0.262202
     8  C   -0.617201
     9  C   -0.168166
    10  C   -0.280520
    11  C   -0.225985
    12  C   -0.790279
    13  H    0.430019
    14  H    0.412872
    15  H    0.352840
    16  H    0.435451
    17  H    0.386927
    18  H    0.407033
    19  H    0.553860
    20  H    0.529748
    21  H    0.703065
    22  H    0.503619
    23  H    0.558188
    24  H    0.391050
 Sum of APT charges =  -0.00000
 APT charges with hydrogens summed into heavy atoms:
               1
     1  O   -0.308377
     2  O   -0.131541
     3  O   -0.060133
     4  O   -0.097190
     5  O    0.068595
     6  O   -0.106002
     7  C    0.167817
     8  C   -0.204328
     9  C    0.184673
    10  C    0.154930
    11  C    0.160942
    12  C    0.170613
 Electronic spatial extent (au):  <R**2>=           2201.7948
 Charge=              0.0000 electrons
 Dipole moment (field-independent basis, Debye):
    X=              0.0755    Y=              1.7284    Z=              1.4105  Tot=              2.2322
 Quadrupole moment (field-independent basis, Debye-Ang):
   XX=            -90.8922   YY=            -76.9842   ZZ=            -62.6353
   XY=             -1.8362   XZ=              4.1648   YZ=              6.8461
 Traceless Quadrupole moment (field-independent basis, Debye-Ang):
   XX=            -14.0550   YY=             -0.1470   ZZ=             14.2019
   XY=             -1.8362   XZ=              4.1648   YZ=              6.8461
 Octapole moment (field-independent basis, Debye-Ang**2):
  XXX=              8.0456  YYY=             17.8132  ZZZ=              5.7580  XYY=             -0.7262
  XXY=              4.0690  XXZ=             -3.6898  XZZ=             11.4010  YZZ=             -2.8506
  YYZ=              1.5618  XYZ=              3.6752
 Hexadecapole moment (field-independent basis, Debye-Ang**3):
 XXXX=          -1828.5209 YYYY=          -1026.3977 ZZZZ=           -144.4392 XXXY=            -55.1223
 XXXZ=             53.9299 YYYX=             78.8110 YYYZ=             42.8700 ZZZX=              9.7476
 ZZZY=             17.7840 XXYY=           -421.9978 XXZZ=           -249.5305 YYZZ=           -163.4242
 XXYZ=             32.4924 YYXZ=            -15.1829 ZZXY=            -25.2799
 N-N= 8.239665317592D+02 E-N=-3.261059108365D+03  KE= 6.841509595223D+02
  Exact polarizability:   0.000   0.000   0.000   0.000   0.000   0.000
 Approx polarizability: 123.080  -4.383 127.344  -1.630   1.929 126.651
 No NMR shielding tensors so no spin-rotation constants.
 Leave Link  601 at Fri Nov  1 10:59:01 2024, MaxMem=  4294967296 cpu:               3.9 elap:               0.2
 (Enter /home/matma/Software/gaussian16.B01_files/AVX2/tar//g16/l701.exe)
 ... and contract with generalized density number  0.
 Compute integral second derivatives.
 R6Disp: Adding Grimme-D3 dispersion energy 2nd derivatives to the Hessian.
 Leave Link  701 at Fri Nov  1 10:59:01 2024, MaxMem=  4294967296 cpu:               5.2 elap:               0.2
 (Enter /home/matma/Software/gaussian16.B01_files/AVX2/tar//g16/l702.exe)
 L702 exits ... SP integral derivatives will be done elsewhere.
 Leave Link  702 at Fri Nov  1 10:59:01 2024, MaxMem=  4294967296 cpu:               0.3 elap:               0.0
 (Enter /home/matma/Software/gaussian16.B01_files/AVX2/tar//g16/l703.exe)
 Integral derivatives from FoFJK, PRISM(SPDF).
 Compute integral second derivatives, UseDBF=F ICtDFT=           0.
 Calling FoFJK, ICntrl=    100147 FMM=F ISym2X=0 I1Cent= 0 IOpClX= 0 NMat=1 NMatS=1 NMatT=0.
 FoFJK:  IHMeth= 1 ICntrl=  100147 DoSepK=F KAlg= 0 I1Cent=           0 FoldK=F
 IRaf=         0 NMat=       1 IRICut=       1 DoRegI=T DoRafI=F ISym2E= 0 IDoP0=0 IntGTp=1.
 FoFCou: FMM=F IPFlag=           0 FMFlag=      100000 FMFlg1=         800
         NFxFlg=           0 DoJE=F BraDBF=F KetDBF=F FulRan=T
         wScrn=  0.000000 ICntrl=    100147 IOpCl=  0 I1Cent=           0 NGrid=           0
         NMat0=    1 NMatS0=      1 NMatT0=    0 NMatD0=    1 NMtDS0=    0 NMtDT0=    0
 Symmetry not used in FoFCou.
 Leave Link  703 at Fri Nov  1 11:00:13 2024, MaxMem=  4294967296 cpu:            2012.0 elap:              71.9
 (Enter /home/matma/Software/gaussian16.B01_files/AVX2/tar//g16/l716.exe)
 Dipole        = 2.96975122D-02 6.80008975D-01 5.54941148D-01
 Polarizability= 0.00000000D+00 0.00000000D+00 0.00000000D+00
                 0.00000000D+00 0.00000000D+00 0.00000000D+00
 ***** Axes restored to original set *****
 -------------------------------------------------------------------
 Center     Atomic                   Forces (Hartrees/Bohr)
 Number     Number              X              Y              Z
 -------------------------------------------------------------------
      1        8           0.004665957   -0.000462941   -0.001328159
      2        8           0.002198640   -0.001909369   -0.002637305
      3        8          -0.001558547    0.000200149   -0.005611510
      4        8          -0.003810121   -0.000609501    0.000296257
      5        8          -0.014738408   -0.020273688   -0.007214782
      6        8          -0.001854333    0.004804210    0.000057197
      7        6          -0.002886233    0.003587708   -0.023662928
      8        6           0.000380047   -0.014574931    0.028070315
      9        6           0.000973780   -0.002811754    0.015545626
     10        6           0.012805413   -0.011052949   -0.030599241
     11        6           0.006945610    0.019933746    0.033135550
     12        6           0.000065219    0.020776092   -0.003491750
     13        1           0.000127588   -0.000443029   -0.003183538
     14        1          -0.005672856    0.007556607   -0.006011065
     15        1           0.000482491   -0.002406154   -0.003467850
     16        1          -0.001983383    0.000020200   -0.001793352
     17        1           0.000269542    0.000635954   -0.001575117
     18        1           0.006302055   -0.005891633    0.002745629
     19        1           0.002863820    0.002270537   -0.001102116
     20        1          -0.001145543   -0.000520924    0.010646877
     21        1           0.002164423    0.010574102    0.003141449
     22        1           0.002211860    0.000605539    0.012146288
     23        1          -0.005441082    0.000293014   -0.010228412
     24        1          -0.003365940   -0.010300984   -0.003878064
 -------------------------------------------------------------------
 Cartesian Forces:  Max     0.033135550 RMS     0.009688422
 FormGI is forming the generalized inverse of G from B-inverse, IUseBI=4.
 Leave Link  716 at Fri Nov  1 11:00:13 2024, MaxMem=  4294967296 cpu:               0.6 elap:               0.0
 (Enter /home/matma/Software/gaussian16.B01_files/AVX2/tar//g16/l103.exe)

 GradGradGradGradGradGradGradGradGradGradGradGradGradGradGradGradGradGrad
 Berny optimization.
 Red2BG is reusing G-inverse.
 Internal  Forces:  Max     0.030463017 RMS     0.005143381
 Search for a local minimum.
 Step number   1 out of a maximum of  142
 All quantities printed in internal units (Hartrees-Bohrs-Radians)
 RMS Force = .51434D-02 SwitMx=.10000D-02 MixMth= 1
 Mixed Optimization -- RFO/linear search
 Second derivative matrix not updated -- analytic derivatives used.
 ITU=  0
     Eigenvalues ---   -0.00002   0.00072   0.00273   0.00309   0.00368
     Eigenvalues ---    0.00426   0.00682   0.00777   0.00831   0.02346
     Eigenvalues ---    0.02376   0.03657   0.04194   0.04659   0.04832
     Eigenvalues ---    0.05020   0.05301   0.05690   0.05856   0.05946
     Eigenvalues ---    0.06257   0.06667   0.06724   0.06885   0.07055
     Eigenvalues ---    0.08558   0.09485   0.09759   0.10978   0.12193
     Eigenvalues ---    0.13914   0.14765   0.15494   0.15866   0.16185
     Eigenvalues ---    0.17008   0.17250   0.17810   0.19620   0.20234
     Eigenvalues ---    0.20572   0.23873   0.24228   0.24633   0.26418
     Eigenvalues ---    0.27780   0.29118   0.29887   0.31316   0.31816
     Eigenvalues ---    0.32593   0.33055   0.33189   0.33409   0.33861
     Eigenvalues ---    0.34320   0.35775   0.36504   0.36775   0.38029
     Eigenvalues ---    0.39807   0.49668   0.49705   0.49833   0.49846
     Eigenvalues ---    0.50167
 Eigenvalue     1 is  -1.67D-05 should be greater than     0.000000 Eigenvector:
                          D14       D13       D15       D16       D17
   1                   -0.55510  -0.55455  -0.54546  -0.12609  -0.11872
                          D18       D10       D11       D12       D8
   1                   -0.11745  -0.07182  -0.06351  -0.05621  -0.05295
 RFO step:  Lambda=-1.74153543D-02 EMin=-1.66869416D-05
 Linear search not attempted -- first point.
 Iteration  1 RMS(Cart)=  0.04516695 RMS(Int)=  0.00149958
 Iteration  2 RMS(Cart)=  0.00190572 RMS(Int)=  0.00049915
 Iteration  3 RMS(Cart)=  0.00000277 RMS(Int)=  0.00049914
 Iteration  4 RMS(Cart)=  0.00000000 RMS(Int)=  0.00049914
 ITry= 1 IFail=0 DXMaxC= 1.92D-01 DCOld= 1.00D+10 DXMaxT= 3.00D-01 DXLimC= 3.00D+00 Rises=F
 Variable       Old X    -DE/DX   Delta X   Delta X   Delta X     New X
                                 (Linear)    (Quad)   (Total)
    R1        2.69967  -0.00600   0.00000  -0.02424  -0.02449   2.67518
    R2        2.69426  -0.01013   0.00000  -0.02076  -0.02077   2.67350
    R3        2.69321  -0.00153   0.00000  -0.01229  -0.01229   2.68093
    R4        1.83745  -0.01068   0.00000  -0.01948  -0.01948   1.81797
    R5        2.69935  -0.00835   0.00000  -0.03986  -0.03986   2.65950
    R6        1.83800  -0.01104   0.00000  -0.02053  -0.02053   1.81747
    R7        2.69743  -0.00703   0.00000  -0.03937  -0.03937   2.65806
    R8        1.83780  -0.01236   0.00000  -0.02260  -0.02260   1.81520
    R9        2.69719  -0.03046   0.00000  -0.10821  -0.10821   2.58898
   R10        1.83612  -0.01143   0.00000  -0.02040  -0.02040   1.81572
   R11        2.67572  -0.00049   0.00000  -0.01743  -0.01743   2.65829
   R12        1.83790  -0.01130   0.00000  -0.02050  -0.02050   1.81739
   R13        2.88913  -0.00283   0.00000  -0.00744  -0.00743   2.88170
   R14        2.89216  -0.00328   0.00000  -0.01754  -0.01770   2.87446
   R15        2.07284  -0.00313   0.00000  -0.00455  -0.00455   2.06829
   R16        2.88882  -0.00498   0.00000  -0.00965  -0.00940   2.87942
   R17        2.07301   0.00404   0.00000   0.01889   0.01889   2.09190
   R18        2.88259  -0.00640   0.00000  -0.01958  -0.01958   2.86300
   R19        2.07598   0.00333   0.00000   0.01356   0.01356   2.08954
   R20        2.88874   0.00427   0.00000   0.01013   0.01029   2.89903
   R21        2.07244  -0.00210   0.00000  -0.00040  -0.00040   2.07203
   R22        2.07127   0.00161   0.00000   0.01236   0.01236   2.08362
   R23        2.06948   0.00251   0.00000   0.00888   0.00888   2.07836
   R24        2.06683  -0.00281   0.00000  -0.00496  -0.00496   2.06188
    A1        1.96440   0.00054   0.00000   0.01736   0.01750   1.98191
    A2        1.88471  -0.00019   0.00000   0.00707   0.00707   1.89178
    A3        1.87472  -0.00280   0.00000  -0.00083  -0.00083   1.87389
    A4        1.88571   0.00071   0.00000   0.01628   0.01628   1.90199
    A5        1.89461  -0.00312   0.00000   0.01042   0.01042   1.90503
    A6        1.87825  -0.00352   0.00000  -0.01078  -0.01078   1.86747
    A7        1.90775   0.00179   0.00000   0.01351   0.01262   1.92037
    A8        1.90777   0.00377   0.00000   0.04497   0.04456   1.95233
    A9        1.87427  -0.00296   0.00000  -0.03016  -0.02983   1.84443
   A10        1.93357  -0.00034   0.00000   0.00433   0.00370   1.93726
   A11        1.90931  -0.00156   0.00000  -0.01824  -0.01834   1.89098
   A12        1.93011  -0.00074   0.00000  -0.01500  -0.01481   1.91530
   A13        1.88525   0.00476   0.00000   0.03902   0.03896   1.92422
   A14        1.91026  -0.00598   0.00000  -0.02355  -0.02445   1.88581
   A15        1.85697   0.00372   0.00000   0.04873   0.04916   1.90613
   A16        1.94116   0.00224   0.00000   0.02484   0.02512   1.96628
   A17        1.93745  -0.00363   0.00000  -0.04785  -0.04842   1.88902
   A18        1.93013  -0.00102   0.00000  -0.03833  -0.03861   1.89152
   A19        1.91899   0.00200   0.00000  -0.00201  -0.00199   1.91700
   A20        1.87705  -0.00610   0.00000  -0.02256  -0.02245   1.85461
   A21        1.89313   0.00196   0.00000   0.01443   0.01442   1.90755
   A22        1.94996   0.00582   0.00000   0.02804   0.02806   1.97802
   A23        1.93782  -0.00376   0.00000  -0.02259  -0.02259   1.91523
   A24        1.88487  -0.00010   0.00000   0.00462   0.00475   1.88961
   A25        1.90913   0.00534   0.00000   0.04616   0.04512   1.95424
   A26        1.88938   0.00356   0.00000   0.04009   0.03902   1.92840
   A27        1.86431  -0.00365   0.00000  -0.02477  -0.02374   1.84056
   A28        1.94312  -0.00225   0.00000  -0.00277  -0.00396   1.93916
   A29        1.91625  -0.00191   0.00000  -0.02494  -0.02528   1.89097
   A30        1.93959  -0.00092   0.00000  -0.03217  -0.03251   1.90708
   A31        1.91518  -0.00951   0.00000  -0.02386  -0.02516   1.89002
   A32        1.92897   0.00355   0.00000   0.00220   0.00217   1.93114
   A33        1.91498  -0.00000   0.00000  -0.00839  -0.00897   1.90601
   A34        1.88382   0.01441   0.00000   0.08065   0.08066   1.96448
   A35        1.86398  -0.00446   0.00000  -0.01426  -0.01378   1.85020
   A36        1.95533  -0.00431   0.00000  -0.03575  -0.03578   1.91955
   A37        1.89486   0.00993   0.00000   0.04469   0.04495   1.93981
   A38        1.88074   0.00424   0.00000   0.05551   0.05623   1.93697
   A39        1.89115  -0.00451   0.00000  -0.01404  -0.01349   1.87766
   A40        1.94583  -0.00810   0.00000  -0.05132  -0.05279   1.89305
   A41        1.95008  -0.00376   0.00000  -0.02847  -0.02916   1.92092
   A42        1.89913   0.00255   0.00000  -0.00227  -0.00405   1.89508
    D1        1.10311  -0.00118   0.00000   0.00803   0.00811   1.11122
    D2       -3.05331   0.00332   0.00000   0.02697   0.02711  -3.02620
    D3       -1.01888   0.00098   0.00000   0.02791   0.02805  -0.99083
    D4        3.12250  -0.01141   0.00000  -0.08515  -0.08463   3.03787
    D5       -1.08516   0.00261   0.00000   0.00072   0.00053  -1.08463
    D6        1.07964  -0.00043   0.00000  -0.04896  -0.04900   1.03063
    D7       -1.07969  -0.00238   0.00000  -0.04842  -0.04882  -1.12851
    D8        1.03930   0.00068   0.00000  -0.00658  -0.00602   1.03328
    D9        3.13384   0.00019   0.00000  -0.01688  -0.01703   3.11681
   D10        1.01086  -0.00149   0.00000  -0.05556  -0.05491   0.95595
   D11        3.12676   0.00058   0.00000  -0.01555  -0.01513   3.11163
   D12       -1.07049  -0.00171   0.00000  -0.04591  -0.04698  -1.11747
   D13        1.06136   0.00137   0.00000   0.02040   0.02159   1.08295
   D14       -1.05878  -0.00128   0.00000  -0.02865  -0.02981  -1.08858
   D15        3.13436  -0.00009   0.00000   0.00153   0.00151   3.13587
   D16        1.43861   0.00458   0.00000   0.00312   0.00302   1.44163
   D17       -0.66452  -0.00290   0.00000  -0.03449  -0.03438  -0.69890
   D18       -2.77000  -0.00314   0.00000  -0.02805  -0.02807  -2.79807
   D19       -1.01941   0.00071   0.00000   0.02000   0.01906  -1.00034
   D20        1.09046  -0.00085   0.00000   0.01639   0.01747   1.10793
   D21       -3.14054   0.00205   0.00000   0.03628   0.03614  -3.10440
   D22       -1.21839   0.00088   0.00000   0.04440   0.04498  -1.17340
   D23        2.96820   0.00385   0.00000   0.03354   0.03341   3.00162
   D24        0.81122   0.00617   0.00000   0.09968   0.09923   0.91044
   D25        2.96150  -0.00475   0.00000  -0.02290  -0.02224   2.93926
   D26        0.86491  -0.00178   0.00000  -0.03376  -0.03381   0.83110
   D27       -1.29208   0.00054   0.00000   0.03238   0.03200  -1.26008
   D28        0.82931  -0.00256   0.00000   0.00529   0.00585   0.83516
   D29       -1.26729   0.00041   0.00000  -0.00557  -0.00572  -1.27301
   D30        2.85891   0.00273   0.00000   0.06057   0.06009   2.91900
   D31       -3.07868  -0.00302   0.00000  -0.02705  -0.02727  -3.10595
   D32        1.12175  -0.00043   0.00000  -0.01541  -0.01572   1.10603
   D33       -0.98360  -0.00168   0.00000  -0.02484  -0.02497  -1.00856
   D34       -0.97540   0.00143   0.00000   0.02155   0.02172  -0.95368
   D35       -3.05815   0.00402   0.00000   0.03319   0.03327  -3.02488
   D36        1.11969   0.00277   0.00000   0.02376   0.02403   1.14371
   D37        1.14460  -0.00127   0.00000  -0.00871  -0.00863   1.13597
   D38       -0.93815   0.00132   0.00000   0.00293   0.00292  -0.93523
   D39       -3.04350   0.00007   0.00000  -0.00650  -0.00633  -3.04983
   D40        1.26625  -0.00502   0.00000  -0.07928  -0.07921   1.18704
   D41       -2.92958   0.00145   0.00000  -0.00122  -0.00102  -2.93061
   D42       -0.77420  -0.00262   0.00000  -0.06180  -0.06128  -0.83549
   D43       -2.93520  -0.00157   0.00000  -0.03056  -0.03094  -2.96614
   D44       -0.84785   0.00491   0.00000   0.04750   0.04725  -0.80060
   D45        1.30753   0.00083   0.00000  -0.01308  -0.01301   1.29452
   D46       -0.77405  -0.00538   0.00000  -0.10204  -0.10236  -0.87641
   D47        1.31330   0.00110   0.00000  -0.02398  -0.02417   1.28913
   D48       -2.81451  -0.00297   0.00000  -0.08456  -0.08443  -2.89894
   D49        1.02607   0.00195   0.00000   0.03379   0.03368   1.05975
   D50       -1.04313  -0.00469   0.00000  -0.03204  -0.03105  -1.07418
   D51        3.11068   0.00050   0.00000   0.02795   0.02739   3.13807
   D52        3.13345   0.00397   0.00000   0.03356   0.03317  -3.11656
   D53        1.06425  -0.00268   0.00000  -0.03226  -0.03156   1.03268
   D54       -1.06513   0.00251   0.00000   0.02772   0.02689  -1.03824
   D55       -1.01377   0.00291   0.00000   0.02630   0.02616  -0.98761
   D56       -3.08298  -0.00374   0.00000  -0.03952  -0.03857  -3.12155
   D57        1.07083   0.00145   0.00000   0.02046   0.01987   1.09071
   D58        3.03950   0.00326   0.00000   0.04031   0.04038   3.07987
   D59       -1.14922   0.00268   0.00000   0.06243   0.06315  -1.08607
   D60        0.89807   0.00373   0.00000   0.07472   0.07457   0.97264
   D61        0.94046  -0.00425   0.00000  -0.04084  -0.04073   0.89973
   D62        3.03492  -0.00483   0.00000  -0.01871  -0.01796   3.01697
   D63       -1.20097  -0.00378   0.00000  -0.00642  -0.00654  -1.20751
   D64       -1.20157   0.00045   0.00000   0.01616   0.01576  -1.18580
   D65        0.89290  -0.00013   0.00000   0.03828   0.03854   0.93144
   D66        2.94019   0.00093   0.00000   0.05057   0.04996   2.99015
         Item               Value     Threshold  Converged?
 Maximum Force            0.030463     0.000450     NO 
 RMS     Force            0.005143     0.000300     NO 
 Maximum Displacement     0.191507     0.001800     NO 
 RMS     Displacement     0.044940     0.001200     NO 
 Predicted change in Energy=-1.013865D-02
 Lowest energy point so far.  Saving SCF results.
 GradGradGradGradGradGradGradGradGradGradGradGradGradGradGradGradGradGrad

 Leave Link  103 at Fri Nov  1 11:00:13 2024, MaxMem=  4294967296 cpu:               0.8 elap:               0.1
 (Enter /home/matma/Software/gaussian16.B01_files/AVX2/tar//g16/l202.exe)
                          Input orientation:                          
 ---------------------------------------------------------------------
 Center     Atomic      Atomic             Coordinates (Angstroms)
 Number     Number       Type             X           Y           Z
 ---------------------------------------------------------------------
      1          8           0       -0.648906    1.128335    0.278211
      2          8           0       -0.885882   -2.476021   -0.324507
      3          8           0        1.880218   -2.051985    0.427981
      4          8           0        2.888651    0.526528   -0.408400
      5          8           0        1.031165    2.634838    0.224593
      6          8           0       -3.379381    0.997776   -0.171638
      7          6           0       -0.380899   -1.259468    0.202424
      8          6           0        1.078753   -1.081364   -0.201439
      9          6           0       -1.216121   -0.064456   -0.231267
     10          6           0        1.625831    0.292673    0.165255
     11          6           0        0.642758    1.402131   -0.229890
     12          6           0       -2.640692   -0.109922    0.282410
     13          1           0       -0.426569   -1.366953    1.290670
     14          1           0        1.151919   -1.204553   -1.299114
     15          1           0       -1.247309   -0.011679   -1.335305
     16          1           0        1.787445    0.321697    1.249363
     17          1           0        0.590366    1.485579   -1.328084
     18          1           0       -2.613820   -0.141587    1.381447
     19          1           0       -3.140390   -1.009940   -0.079204
     20          1           0       -0.884081   -2.414875   -1.284588
     21          1           0        1.510493   -2.913280    0.212429
     22          1           0        2.805623    0.506641   -1.365160
     23          1           0        1.386259    2.545738    1.112952
     24          1           0       -2.913632    1.786048    0.122663
 ---------------------------------------------------------------------
                    Distance matrix (angstroms):
                    1          2          3          4          5
     1  O    0.000000
     2  O    3.662078   0.000000
     3  O    4.066120   2.897818   0.000000
     4  O    3.653480   4.823841   2.892266   0.000000
     5  O    2.257225   5.486115   4.767449   2.880262   0.000000
     6  O    2.770362   4.278805   6.109335   6.290180   4.721217
     7  C    2.403992   1.418685   2.406576   3.775295   4.142467
     8  C    2.845635   2.412468   1.407345   2.429791   3.740846
     9  C    1.415645   2.435857   3.737940   4.150879   3.541792
    10  C    2.426009   3.770177   2.373006   1.406586   2.417207
    11  C    1.414753   4.169623   3.727603   2.417144   1.370029
    12  C    2.345317   3.007679   4.922543   5.608559   4.584712
    13  H    2.702031   2.012411   2.556319   4.178851   4.390426
    14  H    3.342648   2.592127   2.057040   2.608879   4.132455
    15  H    2.064256   2.687997   4.129582   4.272585   3.824758
    16  H    2.744013   4.177436   2.513492   2.000697   2.640594
    17  H    2.060001   4.345200   4.154738   2.654753   1.981389
    18  H    2.586643   3.368328   4.975449   5.824699   4.725755
    19  H    3.302644   2.700440   5.152630   6.230445   5.547844
    20  H    3.879689   0.962028   3.271991   4.863441   5.607619
    21  H    4.582792   2.494416   0.961762   3.757263   5.568798
    22  H    3.875686   4.858647   3.258573   0.960562   3.194564
    23  H    2.616815   5.696225   4.674638   2.940902   0.960839
    24  H    2.363422   4.740988   6.148554   5.961117   4.036366
                    6          7          8          9         10
     6  O    0.000000
     7  C    3.771733   0.000000
     8  C    4.919215   1.524930   0.000000
     9  C    2.410723   1.521097   2.510267   0.000000
    10  C    5.065848   2.537221   1.523725   2.891619   0.000000
    11  C    4.042833   2.884247   2.521637   2.367765   1.534102
    12  C    1.406704   2.536635   3.874543   1.515036   4.287077
    13  H    4.055785   1.094494   2.138678   2.153179   2.869366
    14  H    5.162765   2.146431   1.106986   2.836853   2.147243
    15  H    2.630372   2.161540   2.800079   1.105739   3.255648
    16  H    5.401150   2.880604   2.139078   3.370874   1.096472
    17  H    4.163438   3.289544   2.845532   2.620881   2.173770
    18  H    2.072754   2.761464   4.125991   2.135499   4.431969
    19  H    2.024002   2.785026   4.221517   2.149389   4.947062
    20  H    4.371655   1.949195   2.608482   2.596961   3.966423
    21  H    6.273335   2.512481   1.927070   3.968260   3.208373
    22  H    6.318227   3.966156   2.618795   4.217380   1.944187
    23  H    5.172783   4.293193   3.870150   3.923318   2.455978
    24  H    0.961722   3.961851   4.926077   2.535976   4.778986
                   11         12         13         14         15
    11  C    0.000000
    12  C    3.651000   0.000000
    13  H    3.335174   2.738440   0.000000
    14  H    2.863091   4.252451   3.037265   0.000000
    15  H    2.606368   2.137329   3.066941   2.679655   0.000000
    16  H    2.160054   4.552987   2.784799   3.037773   4.000172
    17  H    1.102606   3.947032   4.003620   2.748271   2.370419
    18  H    3.947755   1.099821   2.508750   4.743005   3.043842
    19  H    4.489209   1.091098   3.060856   4.466539   2.481546
    20  H    4.244191   3.294537   2.817696   2.368625   2.431020
    21  H    4.423955   5.009596   2.702950   2.309347   4.291880
    22  H    2.601678   5.723373   4.583760   2.380606   4.086050
    23  H    1.914120   4.894759   4.315910   4.465161   4.412485
    24  H    3.594384   1.922165   4.182241   5.243458   2.852040
                   16         17         18         19         20
    16  H    0.000000
    17  H    3.070969   0.000000
    18  H    4.427552   4.500671   0.000000
    19  H    5.274648   4.658955   1.778993   0.000000
    20  H    4.587677   4.170064   3.907375   2.918514   0.000000
    21  H    3.408373   4.750766   5.104786   5.033733   2.867656
    22  H    2.811871   2.422201   6.110190   6.269671   4.706980
    23  H    2.264049   2.777776   4.826431   5.878319   5.959054
    24  H    5.051129   3.804333   2.321681   2.812423   4.873109
                   21         22         23         24
    21  H    0.000000
    22  H    3.982714   0.000000
    23  H    5.534189   3.509067   0.000000
    24  H    6.454814   6.046518   4.477372   0.000000
 Stoichiometry    C6H12O6
 Framework group  C1[X(C6H12O6)]
 Deg. of freedom    66
 Full point group                 C1      NOp   1
 RotChk:  IX=0 Diff= 4.94D-02
 Largest Abelian subgroup         C1      NOp   1
 Largest concise Abelian subgroup C1      NOp   1
                         Standard orientation:                         
 ---------------------------------------------------------------------
 Center     Atomic      Atomic             Coordinates (Angstroms)
 Number     Number       Type             X           Y           Z
 ---------------------------------------------------------------------
      1          8           0       -0.693822   -1.121207   -0.258229
      2          8           0       -0.782137    2.502380    0.263908
      3          8           0        1.957159    1.952047   -0.504689
      4          8           0        2.871628   -0.644956    0.381044
      5          8           0        0.925951   -2.691612   -0.185921
      6          8           0       -3.412229   -0.872279    0.214216
      7          6           0       -0.331024    1.255179   -0.239730
      8          6           0        1.124554    1.028430    0.154340
      9          6           0       -1.208234    0.104333    0.229092
     10          6           0        1.613166   -0.374151   -0.185897
     11          6           0        0.591207   -1.434533    0.243822
     12          6           0       -2.635127    0.194716   -0.272047
     13          1           0       -0.383646    1.339842   -1.329675
     14          1           0        1.213851    1.173321    1.248163
     15          1           0       -1.230082    0.077727    1.334296
     16          1           0        1.762311   -0.433989   -1.270530
     17          1           0        0.546901   -1.491069    1.344086
     18          1           0       -2.618372    0.200517   -1.371725
     19          1           0       -3.095158    1.121777    0.073532
     20          1           0       -0.772840    2.462860    1.225080
     21          1           0        1.623958    2.831975   -0.305465
     22          1           0        2.799330   -0.600235    1.337837
     23          1           0        1.275096   -2.636716   -1.079396
     24          1           0       -2.981013   -1.684846   -0.066313
 ---------------------------------------------------------------------
 Rotational constants (GHZ):           1.1635681           0.7936084           0.4983568
 Leave Link  202 at Fri Nov  1 11:00:13 2024, MaxMem=  4294967296 cpu:               0.1 elap:               0.0
 (Enter /home/matma/Software/gaussian16.B01_files/AVX2/tar//g16/l301.exe)
 Standard basis: 6-311+G(d,p) (5D, 7F)
 Ernie: Thresh=  0.10000D-02 Tol=  0.10000D-05 Strict=F.
 There are   348 symmetry adapted cartesian basis functions of A   symmetry.
 There are   336 symmetry adapted basis functions of A   symmetry.
   336 basis functions,   528 primitive gaussians,   348 cartesian basis functions
    48 alpha electrons       48 beta electrons
       nuclear repulsion energy       827.3454410246 Hartrees.
 IExCor= 1009 DFT=T Ex+Corr=PBE1PBE ExCW=0 ScaHFX=  0.250000
 ScaDFX=  0.750000  0.750000  1.000000  1.000000 ScalE2=  1.000000  1.000000
 IRadAn=  99590 IRanWt=     -1 IRanGd=            0 ICorTp=0 IEmpDi=131
 NAtoms=   24 NActive=   24 NUniq=   24 SFac= 1.00D+00 NAtFMM=   60 NAOKFM=F Big=F
 Integral buffers will be    131072 words long.
 Raffenetti 2 integral format.
 Two-electron integral symmetry is turned on.
 R6Disp:  Grimme-D3 Dispersion energy=       -0.0156324432 Hartrees.
 Nuclear repulsion after empirical dispersion term =      827.3298085813 Hartrees.
 Leave Link  301 at Fri Nov  1 11:00:13 2024, MaxMem=  4294967296 cpu:               0.8 elap:               0.0
 (Enter /home/matma/Software/gaussian16.B01_files/AVX2/tar//g16/l302.exe)
 NPDir=0 NMtPBC=     1 NCelOv=     1 NCel=       1 NClECP=     1 NCelD=      1
         NCelK=      1 NCelE2=     1 NClLst=     1 CellRange=     0.0.
 One-electron integrals computed using PRISM.
 One-electron integral symmetry used in STVInt
 NBasis=   336 RedAO= T EigKep=  7.94D-06  NBF=   336
 NBsUse=   336 1.00D-06 EigRej= -1.00D+00 NBFU=   336
 Precomputing XC quadrature grid using
 IXCGrd= 4 IRadAn=       99590 IRanWt=          -1 IRanGd=           0 AccXCQ= 0.00D+00.
 Generated NRdTot=       0 NPtTot=           0 NUsed=           0 NTot=          32
 NSgBfM=   348   348   348   348   348 MxSgAt=    24 MxSgA2=    24.
 Leave Link  302 at Fri Nov  1 11:00:14 2024, MaxMem=  4294967296 cpu:               5.4 elap:               0.2
 (Enter /home/matma/Software/gaussian16.B01_files/AVX2/tar//g16/l303.exe)
 DipDrv:  MaxL=1.
 Leave Link  303 at Fri Nov  1 11:00:14 2024, MaxMem=  4294967296 cpu:               0.8 elap:               0.0
 (Enter /home/matma/Software/gaussian16.B01_files/AVX2/tar//g16/l401.exe)
 Initial guess from the checkpoint file:  "input.chk"
 B after Tr=    -0.000000    0.000000    0.000000
         Rot=    0.999846    0.000872   -0.000484    0.017544 Ang=   2.01 deg.
 Guess basis will be translated and rotated to current coordinates.
 JPrj=2 DoOrth=T DoCkMO=T.
 Generating alternative initial guess.
 ExpMin= 4.38D-02 ExpMax= 8.59D+03 ExpMxC= 1.30D+03 IAcc=4 IRadAn=    199590 AccDes= 0.00D+00
 Harris functional with IExCor= 1009 and IRadAn=  199590 diagonalized for initial guess.
 HarFok:  IExCor= 1009 AccDes= 0.00D+00 IRadAn=    199590 IDoV= 1 UseB2=F ITyADJ=14
 ICtDFT=  3500011 ScaDFX=  1.000000  1.000000  1.000000  1.000000
 FoFCou: FMM=F IPFlag=           0 FMFlag=      100000 FMFlg1=           0
         NFxFlg=           0 DoJE=T BraDBF=F KetDBF=T FulRan=T
         wScrn=  0.000000 ICntrl=       500 IOpCl=  0 I1Cent=   200000004 NGrid=           0
         NMat0=    1 NMatS0=      1 NMatT0=    0 NMatD0=    1 NMtDS0=    0 NMtDT0=    0
 Petite list used in FoFCou.
 Harris En= -686.792016325492    
 Leave Link  401 at Fri Nov  1 11:00:15 2024, MaxMem=  4294967296 cpu:              40.1 elap:               1.5
 (Enter /home/matma/Software/gaussian16.B01_files/AVX2/tar//g16/l502.exe)
 Integral symmetry usage will be decided dynamically.
 Closed shell SCF:
 Using DIIS extrapolation, IDIIS=  1040.
 NGot=  4294967296 LenX=  4294711890 LenY=  4294590345
 Requested convergence on RMS density matrix=1.00D-08 within 128 cycles.
 Requested convergence on MAX density matrix=1.00D-06.
 Requested convergence on             energy=1.00D-06.
 No special actions if energy rises.
 Fock matrices will be formed incrementally for  20 cycles.

 Cycle   1  Pass 1  IDiag  1:
 FoFJK:  IHMeth= 1 ICntrl=       0 DoSepK=F KAlg= 0 I1Cent=           0 FoldK=F
 IRaf= 920000000 NMat=       1 IRICut=       1 DoRegI=T DoRafI=F ISym2E= 0 IDoP0=0 IntGTp=1.
 FoFCou: FMM=F IPFlag=           0 FMFlag=      100000 FMFlg1=           0
         NFxFlg=           0 DoJE=F BraDBF=F KetDBF=F FulRan=T
         wScrn=  0.000000 ICntrl=         0 IOpCl=  0 I1Cent=           0 NGrid=           0
         NMat0=    1 NMatS0=      1 NMatT0=    0 NMatD0=    1 NMtDS0=    0 NMtDT0=    0
 Symmetry not used in FoFCou.
 E= -686.644976337156    
 DIIS: error= 2.37D-03 at cycle   1 NSaved=   1.
 NSaved= 1 IEnMin= 1 EnMin= -686.644976337156     IErMin= 1 ErrMin= 2.37D-03
 ErrMax= 2.37D-03  0.00D+00 EMaxC= 1.00D-01 BMatC= 7.24D-03 BMatP= 7.24D-03
 IDIUse=3 WtCom= 9.76D-01 WtEn= 2.37D-02
 Coeff-Com:  0.100D+01
 Coeff-En:   0.100D+01
 Coeff:      0.100D+01
 Gap=     0.587 Goal=   None    Shift=    0.000
 GapD=    0.587 DampG=2.000 DampE=1.000 DampFc=2.0000 IDamp=-1.
 RMSDP=1.90D-03 MaxDP=2.09D-01              OVMax= 1.85D-02

 Cycle   2  Pass 1  IDiag  1:
 RMSU=  1.67D-03    CP:  9.58D-01
 E= -686.654234336327     Delta-E=       -0.009257999171 Rises=F Damp=F
 DIIS: error= 5.80D-04 at cycle   2 NSaved=   2.
 NSaved= 2 IEnMin= 2 EnMin= -686.654234336327     IErMin= 2 ErrMin= 5.80D-04
 ErrMax= 5.80D-04  0.00D+00 EMaxC= 1.00D-01 BMatC= 3.99D-04 BMatP= 7.24D-03
 IDIUse=3 WtCom= 9.94D-01 WtEn= 5.80D-03
 Coeff-Com:  0.300D-01 0.970D+00
 Coeff-En:   0.000D+00 0.100D+01
 Coeff:      0.298D-01 0.970D+00
 Gap=     0.269 Goal=   None    Shift=    0.000
 RMSDP=2.41D-04 MaxDP=2.78D-02 DE=-9.26D-03 OVMax= 4.55D-03

 Cycle   3  Pass 1  IDiag  1:
 RMSU=  1.99D-04    CP:  9.54D-01  1.06D+00
 E= -686.654185999357     Delta-E=        0.000048336971 Rises=F Damp=F
 DIIS: error= 8.87D-04 at cycle   3 NSaved=   3.
 NSaved= 3 IEnMin= 2 EnMin= -686.654234336327     IErMin= 2 ErrMin= 5.80D-04
 ErrMax= 8.87D-04  0.00D+00 EMaxC= 1.00D-01 BMatC= 5.33D-04 BMatP= 3.99D-04
 IDIUse=3 WtCom= 2.51D-01 WtEn= 7.49D-01
 Coeff-Com: -0.334D-01 0.554D+00 0.480D+00
 Coeff-En:   0.000D+00 0.538D+00 0.462D+00
 Coeff:     -0.840D-02 0.542D+00 0.466D+00
 Gap=     0.270 Goal=   None    Shift=    0.000
 RMSDP=1.36D-04 MaxDP=1.25D-02 DE= 4.83D-05 OVMax= 2.66D-03

 Cycle   4  Pass 1  IDiag  1:
 RMSU=  1.03D-04    CP:  9.52D-01  1.06D+00  6.12D-01
 E= -686.654535003673     Delta-E=       -0.000349004317 Rises=F Damp=F
 DIIS: error= 2.02D-04 at cycle   4 NSaved=   4.
 NSaved= 4 IEnMin= 4 EnMin= -686.654535003673     IErMin= 4 ErrMin= 2.02D-04
 ErrMax= 2.02D-04  0.00D+00 EMaxC= 1.00D-01 BMatC= 1.58D-05 BMatP= 3.99D-04
 IDIUse=3 WtCom= 9.98D-01 WtEn= 2.02D-03
 Coeff-Com: -0.149D-01 0.169D+00 0.218D+00 0.628D+00
 Coeff-En:   0.000D+00 0.000D+00 0.000D+00 0.100D+01
 Coeff:     -0.149D-01 0.168D+00 0.217D+00 0.629D+00
 Gap=     0.271 Goal=   None    Shift=    0.000
 RMSDP=5.21D-05 MaxDP=5.39D-03 DE=-3.49D-04 OVMax= 5.91D-04

 Cycle   5  Pass 1  IDiag  1:
 RMSU=  3.09D-05    CP:  9.53D-01  1.06D+00  5.70D-01  7.68D-01
 E= -686.654545647561     Delta-E=       -0.000010643888 Rises=F Damp=F
 DIIS: error= 5.07D-05 at cycle   5 NSaved=   5.
 NSaved= 5 IEnMin= 5 EnMin= -686.654545647561     IErMin= 5 ErrMin= 5.07D-05
 ErrMax= 5.07D-05  0.00D+00 EMaxC= 1.00D-01 BMatC= 1.66D-06 BMatP= 1.58D-05
 IDIUse=1 WtCom= 1.00D+00 WtEn= 0.00D+00
 Coeff-Com: -0.330D-02 0.226D-01 0.564D-01 0.316D+00 0.609D+00
 Coeff:     -0.330D-02 0.226D-01 0.564D-01 0.316D+00 0.609D+00
 Gap=     0.270 Goal=   None    Shift=    0.000
 RMSDP=1.75D-05 MaxDP=2.24D-03 DE=-1.06D-05 OVMax= 2.26D-04

 Cycle   6  Pass 1  IDiag  1:
 RMSU=  8.99D-06    CP:  9.53D-01  1.06D+00  5.99D-01  8.22D-01  7.46D-01
 E= -686.654547135364     Delta-E=       -0.000001487802 Rises=F Damp=F
 DIIS: error= 1.00D-05 at cycle   6 NSaved=   6.
 NSaved= 6 IEnMin= 6 EnMin= -686.654547135364     IErMin= 6 ErrMin= 1.00D-05
 ErrMax= 1.00D-05  0.00D+00 EMaxC= 1.00D-01 BMatC= 6.23D-08 BMatP= 1.66D-06
 IDIUse=1 WtCom= 1.00D+00 WtEn= 0.00D+00
 Coeff-Com: -0.221D-03-0.473D-02 0.509D-02 0.747D-01 0.231D+00 0.694D+00
 Coeff:     -0.221D-03-0.473D-02 0.509D-02 0.747D-01 0.231D+00 0.694D+00
 Gap=     0.270 Goal=   None    Shift=    0.000
 RMSDP=2.53D-06 MaxDP=2.89D-04 DE=-1.49D-06 OVMax= 3.81D-05

 Cycle   7  Pass 1  IDiag  1:
 RMSU=  1.59D-06    CP:  9.53D-01  1.06D+00  6.01D-01  8.34D-01  7.48D-01
                    CP:  9.10D-01
 E= -686.654547170215     Delta-E=       -0.000000034852 Rises=F Damp=F
 DIIS: error= 4.52D-06 at cycle   7 NSaved=   7.
 NSaved= 7 IEnMin= 7 EnMin= -686.654547170215     IErMin= 7 ErrMin= 4.52D-06
 ErrMax= 4.52D-06  0.00D+00 EMaxC= 1.00D-01 BMatC= 1.66D-08 BMatP= 6.23D-08
 IDIUse=1 WtCom= 1.00D+00 WtEn= 0.00D+00
 Coeff-Com:  0.172D-03-0.505D-02-0.234D-02 0.148D-01 0.820D-01 0.404D+00
 Coeff-Com:  0.507D+00
 Coeff:      0.172D-03-0.505D-02-0.234D-02 0.148D-01 0.820D-01 0.404D+00
 Coeff:      0.507D+00
 Gap=     0.270 Goal=   None    Shift=    0.000
 RMSDP=7.89D-07 MaxDP=1.04D-04 DE=-3.49D-08 OVMax= 1.52D-05

 Cycle   8  Pass 1  IDiag  1:
 RMSU=  5.01D-07    CP:  9.53D-01  1.06D+00  6.00D-01  8.35D-01  7.57D-01
                    CP:  8.79D-01  8.14D-01
 E= -686.654547182094     Delta-E=       -0.000000011879 Rises=F Damp=F
 DIIS: error= 6.29D-07 at cycle   8 NSaved=   8.
 NSaved= 8 IEnMin= 8 EnMin= -686.654547182094     IErMin= 8 ErrMin= 6.29D-07
 ErrMax= 6.29D-07  0.00D+00 EMaxC= 1.00D-01 BMatC= 3.00D-10 BMatP= 1.66D-08
 IDIUse=1 WtCom= 1.00D+00 WtEn= 0.00D+00
 Coeff-Com:  0.714D-04-0.146D-02-0.110D-02 0.972D-03 0.159D-01 0.954D-01
 Coeff-Com:  0.175D+00 0.715D+00
 Coeff:      0.714D-04-0.146D-02-0.110D-02 0.972D-03 0.159D-01 0.954D-01
 Coeff:      0.175D+00 0.715D+00
 Gap=     0.270 Goal=   None    Shift=    0.000
 RMSDP=2.39D-07 MaxDP=2.32D-05 DE=-1.19D-08 OVMax= 3.20D-06

 Cycle   9  Pass 1  IDiag  1:
 RMSU=  1.75D-07    CP:  9.53D-01  1.06D+00  6.00D-01  8.35D-01  7.58D-01
                    CP:  8.85D-01  8.21D-01  9.29D-01
 E= -686.654547182298     Delta-E=       -0.000000000204 Rises=F Damp=F
 DIIS: error= 2.60D-07 at cycle   9 NSaved=   9.
 NSaved= 9 IEnMin= 9 EnMin= -686.654547182298     IErMin= 9 ErrMin= 2.60D-07
 ErrMax= 2.60D-07  0.00D+00 EMaxC= 1.00D-01 BMatC= 5.44D-11 BMatP= 3.00D-10
 IDIUse=1 WtCom= 1.00D+00 WtEn= 0.00D+00
 Coeff-Com:  0.181D-04-0.200D-03-0.295D-03-0.969D-03-0.502D-03 0.475D-02
 Coeff-Com:  0.309D-01 0.335D+00 0.631D+00
 Coeff:      0.181D-04-0.200D-03-0.295D-03-0.969D-03-0.502D-03 0.475D-02
 Coeff:      0.309D-01 0.335D+00 0.631D+00
 Gap=     0.270 Goal=   None    Shift=    0.000
 RMSDP=6.08D-08 MaxDP=3.14D-06 DE=-2.04D-10 OVMax= 1.17D-06

 Cycle  10  Pass 1  IDiag  1:
 RMSU=  3.48D-08    CP:  9.53D-01  1.06D+00  6.00D-01  8.35D-01  7.58D-01
                    CP:  8.86D-01  8.42D-01  9.62D-01  8.78D-01
 E= -686.654547182346     Delta-E=       -0.000000000048 Rises=F Damp=F
 DIIS: error= 7.04D-08 at cycle  10 NSaved=  10.
 NSaved=10 IEnMin=10 EnMin= -686.654547182346     IErMin=10 ErrMin= 7.04D-08
 ErrMax= 7.04D-08  0.00D+00 EMaxC= 1.00D-01 BMatC= 3.52D-12 BMatP= 5.44D-11
 IDIUse=1 WtCom= 1.00D+00 WtEn= 0.00D+00
 Coeff-Com:  0.102D-05 0.486D-04-0.175D-04-0.475D-03-0.165D-02-0.664D-02
 Coeff-Com: -0.326D-02 0.761D-01 0.256D+00 0.680D+00
 Coeff:      0.102D-05 0.486D-04-0.175D-04-0.475D-03-0.165D-02-0.664D-02
 Coeff:     -0.326D-02 0.761D-01 0.256D+00 0.680D+00
 Gap=     0.270 Goal=   None    Shift=    0.000
 RMSDP=1.69D-08 MaxDP=1.23D-06 DE=-4.80D-11 OVMax= 3.56D-07

 Cycle  11  Pass 1  IDiag  1:
 RMSU=  1.14D-08    CP:  9.53D-01  1.06D+00  6.00D-01  8.35D-01  7.58D-01
                    CP:  8.85D-01  8.43D-01  9.77D-01  8.87D-01  8.58D-01
 E= -686.654547182361     Delta-E=       -0.000000000015 Rises=F Damp=F
 DIIS: error= 3.66D-08 at cycle  11 NSaved=  11.
 NSaved=11 IEnMin=11 EnMin= -686.654547182361     IErMin=11 ErrMin= 3.66D-08
 ErrMax= 3.66D-08  0.00D+00 EMaxC= 1.00D-01 BMatC= 5.63D-13 BMatP= 3.52D-12
 IDIUse=1 WtCom= 1.00D+00 WtEn= 0.00D+00
 Coeff-Com: -0.533D-06 0.357D-04 0.955D-05-0.179D-03-0.803D-03-0.357D-02
 Coeff-Com: -0.371D-02 0.157D-01 0.873D-01 0.361D+00 0.544D+00
 Coeff:     -0.533D-06 0.357D-04 0.955D-05-0.179D-03-0.803D-03-0.357D-02
 Coeff:     -0.371D-02 0.157D-01 0.873D-01 0.361D+00 0.544D+00
 Gap=     0.270 Goal=   None    Shift=    0.000
 RMSDP=4.68D-09 MaxDP=3.43D-07 DE=-1.50D-11 OVMax= 1.05D-07

 SCF Done:  E(RPBE1PBE) =  -686.654547182     A.U. after   11 cycles
            NFock= 11  Conv=0.47D-08     -V/T= 2.0032
 KE= 6.844880045650D+02 PE=-3.267959019928D+03 EE= 1.069486659599D+03
 Leave Link  502 at Fri Nov  1 11:00:31 2024, MaxMem=  4294967296 cpu:             443.0 elap:              15.9
 (Enter /home/matma/Software/gaussian16.B01_files/AVX2/tar//g16/l701.exe)
 ... and contract with generalized density number  0.
 Compute integral first derivatives.
 R6Disp: Adding Grimme-D3 dispersion energy 1st derivatives to the gradient.
 Leave Link  701 at Fri Nov  1 11:00:31 2024, MaxMem=  4294967296 cpu:               4.2 elap:               0.2
 (Enter /home/matma/Software/gaussian16.B01_files/AVX2/tar//g16/l702.exe)
 L702 exits ... SP integral derivatives will be done elsewhere.
 Leave Link  702 at Fri Nov  1 11:00:31 2024, MaxMem=  4294967296 cpu:               0.3 elap:               0.0
 (Enter /home/matma/Software/gaussian16.B01_files/AVX2/tar//g16/l703.exe)
 Integral derivatives from FoFJK, PRISM(SPDF).
 Compute integral first derivatives, UseDBF=F ICtDFT=           0.
 Calling FoFJK, ICntrl=      2127 FMM=F ISym2X=0 I1Cent= 0 IOpClX= 0 NMat=1 NMatS=1 NMatT=0.
 FoFJK:  IHMeth= 1 ICntrl=    2127 DoSepK=F KAlg= 0 I1Cent=           0 FoldK=F
 IRaf=         0 NMat=       1 IRICut=       1 DoRegI=T DoRafI=F ISym2E= 0 IDoP0=0 IntGTp=1.
 FoFCou: FMM=F IPFlag=           0 FMFlag=      100000 FMFlg1=         800
         NFxFlg=           0 DoJE=F BraDBF=F KetDBF=F FulRan=T
         wScrn=  0.000000 ICntrl=      2127 IOpCl=  0 I1Cent=           0 NGrid=           0
         NMat0=    1 NMatS0=      1 NMatT0=    0 NMatD0=    1 NMtDS0=    0 NMtDT0=    0
 Symmetry not used in FoFCou.
 Leave Link  703 at Fri Nov  1 11:00:36 2024, MaxMem=  4294967296 cpu:             124.4 elap:               4.5
 (Enter /home/matma/Software/gaussian16.B01_files/AVX2/tar//g16/l716.exe)
 Dipole        = 1.28096018D-01 5.73559326D-01 5.55256013D-01
 ***** Axes restored to original set *****
 -------------------------------------------------------------------
 Center     Atomic                   Forces (Hartrees/Bohr)
 Number     Number              X              Y              Z
 -------------------------------------------------------------------
      1        8           0.000496104   -0.002054862    0.001426458
      2        8           0.000959643   -0.001336047    0.001857334
      3        8           0.001658716   -0.000331990   -0.001862084
      4        8           0.001612999    0.000227478    0.002656178
      5        8           0.002227511    0.004933632   -0.000046287
      6        8          -0.001077688   -0.000557412   -0.000199940
      7        6          -0.000737368    0.000208912   -0.005120311
      8        6           0.001213490   -0.003186776    0.006033062
      9        6          -0.000879448    0.000304987    0.000706985
     10        6           0.000769899   -0.000623945   -0.006926462
     11        6          -0.000798629   -0.001220226    0.001919586
     12        6          -0.000164578    0.002948358    0.000166346
     13        1          -0.000148501    0.000579190    0.000070426
     14        1          -0.001844517    0.002830854   -0.001109836
     15        1           0.000407209   -0.000150118   -0.000400070
     16        1          -0.002033780   -0.000144989    0.000388411
     17        1          -0.000911106   -0.001367258   -0.000636532
     18        1           0.000197835   -0.001338154    0.000231039
     19        1           0.000289809   -0.000224022    0.000157837
     20        1          -0.000681980    0.000181635    0.000006265
     21        1          -0.000651800   -0.000054211    0.000949404
     22        1           0.000187031   -0.000079818   -0.000100630
     23        1          -0.000528424    0.000414126    0.000408840
     24        1           0.000437575    0.000040658   -0.000576019
 -------------------------------------------------------------------
 Cartesian Forces:  Max     0.006926462 RMS     0.001768014
 Leave Link  716 at Fri Nov  1 11:00:36 2024, MaxMem=  4294967296 cpu:               0.4 elap:               0.0
 (Enter /home/matma/Software/gaussian16.B01_files/AVX2/tar//g16/l103.exe)

 GradGradGradGradGradGradGradGradGradGradGradGradGradGradGradGradGradGrad
 Berny optimization.
 Using GEDIIS/GDIIS optimizer.
 FormGI is forming the generalized inverse of G from B-inverse, IUseBI=4.
 Internal  Forces:  Max     0.005413877 RMS     0.000764486
 Search for a local minimum.
 Step number   2 out of a maximum of  142
 All quantities printed in internal units (Hartrees-Bohrs-Radians)
 RMS Force = .76449D-03 SwitMx=.10000D-02 MixMth= 2
 Mixed Optimization -- En-DIIS/RFO-DIIS
 Update second derivatives using D2CorX and points    1    2
 DE= -9.79D-03 DEPred=-1.01D-02 R= 9.66D-01
 TightC=F SS=  1.41D+00  RLast= 4.05D-01 DXNew= 5.0454D-01 1.2163D+00
 Trust test= 9.66D-01 RLast= 4.05D-01 DXMaxT set to 5.05D-01
 ITU=  1  0
 Use linear search instead of GDIIS.
     Eigenvalues ---   -0.00002   0.00072   0.00273   0.00309   0.00368
     Eigenvalues ---    0.00426   0.00682   0.00777   0.00830   0.02346
     Eigenvalues ---    0.02380   0.03652   0.04190   0.04658   0.04794
     Eigenvalues ---    0.05013   0.05304   0.05691   0.05865   0.05934
     Eigenvalues ---    0.06254   0.06608   0.06715   0.06879   0.07051
     Eigenvalues ---    0.08554   0.09482   0.09745   0.10919   0.12179
     Eigenvalues ---    0.13887   0.14748   0.15523   0.15862   0.16326
     Eigenvalues ---    0.17048   0.17221   0.17812   0.19608   0.20226
     Eigenvalues ---    0.20558   0.23850   0.24240   0.24639   0.26412
     Eigenvalues ---    0.28058   0.29047   0.29875   0.31308   0.31787
     Eigenvalues ---    0.32828   0.33048   0.33189   0.33426   0.33861
     Eigenvalues ---    0.34313   0.36062   0.36506   0.37261   0.39379
     Eigenvalues ---    0.39859   0.49674   0.49736   0.49834   0.49911
     Eigenvalues ---    0.50210
 Eigenvalue     1 is  -1.67D-05 should be greater than     0.000000 Eigenvector:
                          D14       D13       D15       D16       D17
   1                   -0.55501  -0.55458  -0.54549  -0.12647  -0.11847
                          D18       D10       D11       D12       D8
   1                   -0.11736  -0.07213  -0.06340  -0.05610  -0.05287
 RFO step:  Lambda=-2.23769828D-03 EMin=-1.66861677D-05
 Quartic linear search produced a step of  0.10799.
 Iteration  1 RMS(Cart)=  0.05810336 RMS(Int)=  0.00238494
 Iteration  2 RMS(Cart)=  0.00277051 RMS(Int)=  0.00018788
 Iteration  3 RMS(Cart)=  0.00001426 RMS(Int)=  0.00018750
 Iteration  4 RMS(Cart)=  0.00000000 RMS(Int)=  0.00018750
 ITry= 1 IFail=0 DXMaxC= 2.36D-01 DCOld= 1.00D+10 DXMaxT= 5.05D-01 DXLimC= 3.00D+00 Rises=F
 Variable       Old X    -DE/DX   Delta X   Delta X   Delta X     New X
                                 (Linear)    (Quad)   (Total)
    R1        2.67518   0.00008  -0.00264   0.00290   0.00038   2.67556
    R2        2.67350   0.00068  -0.00224   0.00654   0.00425   2.67775
    R3        2.68093   0.00020  -0.00133  -0.00113  -0.00246   2.67847
    R4        1.81797   0.00000  -0.00210   0.00273   0.00062   1.81859
    R5        2.65950   0.00043  -0.00430  -0.00720  -0.01151   2.64799
    R6        1.81747   0.00009  -0.00222   0.00423   0.00201   1.81948
    R7        2.65806   0.00060  -0.00425  -0.00422  -0.00847   2.64959
    R8        1.81520   0.00009  -0.00244   0.00297   0.00053   1.81573
    R9        2.58898   0.00541  -0.01169   0.02464   0.01295   2.60193
   R10        1.81572   0.00014  -0.00220   0.00342   0.00122   1.81694
   R11        2.65829   0.00018  -0.00188  -0.00078  -0.00266   2.65563
   R12        1.81739   0.00007  -0.00221   0.00287   0.00066   1.81805
   R13        2.88170   0.00004  -0.00080   0.00090   0.00015   2.88185
   R14        2.87446  -0.00005  -0.00191   0.00146  -0.00029   2.87416
   R15        2.06829   0.00002  -0.00049   0.00194   0.00145   2.06974
   R16        2.87942   0.00034  -0.00101  -0.00086  -0.00202   2.87741
   R17        2.09190   0.00066   0.00204   0.00459   0.00663   2.09853
   R18        2.86300   0.00020  -0.00211   0.00099  -0.00112   2.86188
   R19        2.08954   0.00038   0.00146   0.00002   0.00148   2.09103
   R20        2.89903   0.00067   0.00111  -0.00201  -0.00105   2.89798
   R21        2.07203   0.00008  -0.00004   0.00161   0.00157   2.07360
   R22        2.08362   0.00057   0.00133  -0.00036   0.00098   2.08460
   R23        2.07836   0.00027   0.00096   0.00016   0.00112   2.07948
   R24        2.06188   0.00000  -0.00054   0.00152   0.00098   2.06286
    A1        1.98191   0.00074   0.00189  -0.00329  -0.00182   1.98009
    A2        1.89178   0.00016   0.00076   0.00200   0.00276   1.89454
    A3        1.87389   0.00012  -0.00009  -0.00876  -0.00885   1.86504
    A4        1.90199   0.00032   0.00176   0.00312   0.00487   1.90687
    A5        1.90503   0.00060   0.00113  -0.00280  -0.00167   1.90336
    A6        1.86747  -0.00006  -0.00116   0.00015  -0.00102   1.86645
    A7        1.92037   0.00016   0.00136   0.00057   0.00186   1.92223
    A8        1.95233   0.00083   0.00481   0.01245   0.01736   1.96969
    A9        1.84443  -0.00053  -0.00322  -0.00252  -0.00571   1.83873
   A10        1.93726   0.00022   0.00040  -0.00312  -0.00311   1.93416
   A11        1.89098  -0.00037  -0.00198  -0.00065  -0.00260   1.88837
   A12        1.91530  -0.00040  -0.00160  -0.00712  -0.00869   1.90661
   A13        1.92422   0.00044   0.00421   0.00786   0.01236   1.93658
   A14        1.88581  -0.00018  -0.00264   0.02322   0.02079   1.90660
   A15        1.90613   0.00070   0.00531   0.01249   0.01794   1.92407
   A16        1.96628   0.00040   0.00271  -0.01699  -0.01510   1.95119
   A17        1.88902  -0.00068  -0.00523  -0.01347  -0.01911   1.86991
   A18        1.89152  -0.00069  -0.00417  -0.01263  -0.01726   1.87426
   A19        1.91700  -0.00017  -0.00021  -0.00619  -0.00652   1.91048
   A20        1.85461  -0.00017  -0.00242   0.00266   0.00029   1.85490
   A21        1.90755   0.00019   0.00156  -0.00150   0.00007   1.90761
   A22        1.97802   0.00040   0.00303   0.00289   0.00604   1.98406
   A23        1.91523  -0.00030  -0.00244  -0.00054  -0.00303   1.91220
   A24        1.88961   0.00006   0.00051   0.00272   0.00323   1.89284
   A25        1.95424   0.00054   0.00487   0.01093   0.01609   1.97033
   A26        1.92840   0.00069   0.00421   0.01876   0.02330   1.95170
   A27        1.84056  -0.00038  -0.00256   0.00663   0.00419   1.84475
   A28        1.93916   0.00038  -0.00043  -0.01901  -0.02062   1.91854
   A29        1.89097  -0.00061  -0.00273  -0.00034  -0.00345   1.88752
   A30        1.90708  -0.00073  -0.00351  -0.01677  -0.02041   1.88667
   A31        1.89002   0.00033  -0.00272   0.01171   0.00920   1.89922
   A32        1.93114  -0.00062   0.00023  -0.02072  -0.02112   1.91002
   A33        1.90601  -0.00017  -0.00097  -0.00087  -0.00185   1.90416
   A34        1.96448   0.00133   0.00871   0.00166   0.01065   1.97513
   A35        1.85020  -0.00025  -0.00149   0.00327   0.00171   1.85191
   A36        1.91955  -0.00061  -0.00386   0.00603   0.00213   1.92168
   A37        1.93981   0.00065   0.00485  -0.00056   0.00431   1.94412
   A38        1.93697   0.00081   0.00607   0.00454   0.01066   1.94764
   A39        1.87766  -0.00037  -0.00146   0.00095  -0.00044   1.87723
   A40        1.89305  -0.00052  -0.00570   0.00432  -0.00159   1.89146
   A41        1.92092  -0.00034  -0.00315  -0.00214  -0.00537   1.91555
   A42        1.89508  -0.00025  -0.00044  -0.00741  -0.00807   1.88701
    D1        1.11122   0.00022   0.00088  -0.00172  -0.00100   1.11022
    D2       -3.02620   0.00050   0.00293  -0.00016   0.00270  -3.02350
    D3       -0.99083   0.00057   0.00303   0.00370   0.00668  -0.98415
    D4        3.03787  -0.00126  -0.00914  -0.03234  -0.04131   2.99655
    D5       -1.08463   0.00022   0.00006  -0.03583  -0.03564  -1.12027
    D6        1.03063  -0.00104  -0.00529  -0.04206  -0.04734   0.98329
    D7       -1.12851  -0.00095  -0.00527  -0.06552  -0.07079  -1.19931
    D8        1.03328   0.00005  -0.00065  -0.06031  -0.06094   0.97234
    D9        3.11681  -0.00030  -0.00184  -0.06366  -0.06553   3.05128
   D10        0.95595  -0.00093  -0.00593  -0.14779  -0.15355   0.80240
   D11        3.11163  -0.00026  -0.00163  -0.14859  -0.15033   2.96130
   D12       -1.11747  -0.00080  -0.00507  -0.14367  -0.14881  -1.26628
   D13        1.08295   0.00063   0.00233  -0.08108  -0.07869   1.00426
   D14       -1.08858  -0.00077  -0.00322  -0.07827  -0.08149  -1.17007
   D15        3.13587  -0.00005   0.00016  -0.07179  -0.07169   3.06417
   D16        1.44163  -0.00023   0.00033  -0.04938  -0.04925   1.39237
   D17       -0.69890  -0.00056  -0.00371  -0.03246  -0.03599  -0.73489
   D18       -2.79807  -0.00041  -0.00303  -0.04293  -0.04595  -2.84402
   D19       -1.00034   0.00022   0.00206   0.03898   0.04091  -0.95943
   D20        1.10793   0.00055   0.00189   0.04716   0.04920   1.15712
   D21       -3.10440   0.00048   0.00390   0.04134   0.04522  -3.05918
   D22       -1.17340   0.00098   0.00486   0.07947   0.08436  -1.08904
   D23        3.00162   0.00062   0.00361   0.05576   0.05935   3.06097
   D24        0.91044   0.00169   0.01072   0.09106   0.10163   1.01208
   D25        2.93926  -0.00035  -0.00240   0.06530   0.06290   3.00216
   D26        0.83110  -0.00071  -0.00365   0.04159   0.03789   0.86899
   D27       -1.26008   0.00035   0.00346   0.07689   0.08018  -1.17990
   D28        0.83516   0.00024   0.00063   0.07640   0.07710   0.91226
   D29       -1.27301  -0.00012  -0.00062   0.05270   0.05210  -1.22091
   D30        2.91900   0.00094   0.00649   0.08800   0.09438   3.01338
   D31       -3.10595  -0.00047  -0.00294  -0.00825  -0.01123  -3.11718
   D32        1.10603  -0.00039  -0.00170  -0.00923  -0.01099   1.09504
   D33       -1.00856  -0.00052  -0.00270  -0.01431  -0.01706  -1.02562
   D34       -0.95368   0.00051   0.00235  -0.00079   0.00160  -0.95208
   D35       -3.02488   0.00058   0.00359  -0.00177   0.00184  -3.02304
   D36        1.14371   0.00045   0.00259  -0.00685  -0.00423   1.13948
   D37        1.13597  -0.00007  -0.00093  -0.00818  -0.00910   1.12687
   D38       -0.93523   0.00001   0.00032  -0.00916  -0.00886  -0.94409
   D39       -3.04983  -0.00013  -0.00068  -0.01423  -0.01493  -3.06475
   D40        1.18704  -0.00149  -0.00855  -0.10841  -0.11690   1.07014
   D41       -2.93061   0.00010  -0.00011  -0.09004  -0.09010  -3.02071
   D42       -0.83549  -0.00096  -0.00662  -0.12244  -0.12906  -0.96455
   D43       -2.96614  -0.00079  -0.00334  -0.09330  -0.09665  -3.06279
   D44       -0.80060   0.00080   0.00510  -0.07493  -0.06985  -0.87045
   D45        1.29452  -0.00026  -0.00141  -0.10733  -0.10881   1.18570
   D46       -0.87641  -0.00185  -0.01105  -0.12914  -0.14010  -1.01651
   D47        1.28913  -0.00026  -0.00261  -0.11078  -0.11330   1.17583
   D48       -2.89894  -0.00132  -0.00912  -0.14317  -0.15227  -3.05120
   D49        1.05975   0.00067   0.00364   0.01360   0.01726   1.07701
   D50       -1.07418  -0.00041  -0.00335   0.00541   0.00220  -1.07198
   D51        3.13807   0.00041   0.00296   0.01304   0.01596  -3.12915
   D52       -3.11656   0.00058   0.00358   0.00944   0.01295  -3.10361
   D53        1.03268  -0.00050  -0.00341   0.00125  -0.00211   1.03058
   D54       -1.03824   0.00032   0.00290   0.00888   0.01165  -1.02659
   D55       -0.98761   0.00051   0.00282   0.01261   0.01541  -0.97220
   D56       -3.12155  -0.00057  -0.00417   0.00441   0.00035  -3.12120
   D57        1.09071   0.00025   0.00215   0.01205   0.01412   1.10482
   D58        3.07987   0.00046   0.00436   0.08528   0.08955  -3.11377
   D59       -1.08607   0.00136   0.00682   0.08667   0.09351  -0.99256
   D60        0.97264   0.00147   0.00805   0.09582   0.10392   1.07656
   D61        0.89973  -0.00103  -0.00440   0.07121   0.06677   0.96650
   D62        3.01697  -0.00013  -0.00194   0.07260   0.07074   3.08771
   D63       -1.20751  -0.00001  -0.00071   0.08175   0.08115  -1.12635
   D64       -1.18580  -0.00004   0.00170   0.09417   0.09562  -1.09018
   D65        0.93144   0.00086   0.00416   0.09555   0.09959   1.03102
   D66        2.99015   0.00098   0.00540   0.10471   0.11000   3.10015
         Item               Value     Threshold  Converged?
 Maximum Force            0.005414     0.000450     NO 
 RMS     Force            0.000764     0.000300     NO 
 Maximum Displacement     0.236041     0.001800     NO 
 RMS     Displacement     0.058142     0.001200     NO 
 Predicted change in Energy=-1.703020D-03
 Lowest energy point so far.  Saving SCF results.
 GradGradGradGradGradGradGradGradGradGradGradGradGradGradGradGradGradGrad

 Leave Link  103 at Fri Nov  1 11:00:36 2024, MaxMem=  4294967296 cpu:               1.1 elap:               0.1
 (Enter /home/matma/Software/gaussian16.B01_files/AVX2/tar//g16/l202.exe)
                          Input orientation:                          
 ---------------------------------------------------------------------
 Center     Atomic      Atomic             Coordinates (Angstroms)
 Number     Number       Type             X           Y           Z
 ---------------------------------------------------------------------
      1          8           0       -0.639663    1.122313    0.279804
      2          8           0       -0.864694   -2.490380   -0.303109
      3          8           0        1.900541   -2.071393    0.303847
      4          8           0        2.920372    0.534481   -0.285697
      5          8           0        1.034744    2.652978    0.154257
      6          8           0       -3.386628    0.982197   -0.148001
      7          6           0       -0.367929   -1.259188    0.193250
      8          6           0        1.083460   -1.068144   -0.234100
      9          6           0       -1.216002   -0.068110   -0.225520
     10          6           0        1.620968    0.294070    0.182966
     11          6           0        0.645814    1.395576   -0.250074
     12          6           0       -2.632955   -0.113093    0.307166
     13          1           0       -0.393534   -1.354804    1.284027
     14          1           0        1.105874   -1.108210   -1.343645
     15          1           0       -1.258587   -0.013640   -1.329882
     16          1           0        1.692046    0.312839    1.277804
     17          1           0        0.581846    1.434156   -1.350665
     18          1           0       -2.589437   -0.145959    1.406226
     19          1           0       -3.129032   -1.021307   -0.040226
     20          1           0       -0.938958   -2.426882   -1.260494
     21          1           0        1.445517   -2.907994    0.162117
     22          1           0        2.930531    0.460206   -1.243611
     23          1           0        1.360529    2.605440    1.057615
     24          1           0       -2.903023    1.776749    0.097745
 ---------------------------------------------------------------------
                    Distance matrix (angstroms):
                    1          2          3          4          5
     1  O    0.000000
     2  O    3.666330   0.000000
     3  O    4.080806   2.861900   0.000000
     4  O    3.652285   4.845287   2.859754   0.000000
     5  O    2.272077   5.501925   4.805378   2.870049   0.000000
     6  O    2.783606   4.294531   6.122314   6.324369   4.736179
     7  C    2.398516   1.417385   2.412025   3.776183   4.156207
     8  C    2.833965   2.413052   1.401255   2.438301   3.741650
     9  C    1.415848   2.448842   3.742487   4.180469   3.551676
    10  C    2.409527   3.764033   2.384992   1.402103   2.430829
    11  C    1.417002   4.169544   3.728410   2.432358   1.376884
    12  C    2.345248   3.025009   4.938374   5.622301   4.596361
    13  H    2.684242   2.007617   2.595579   4.124973   4.402122
    14  H    3.264617   2.622259   2.067232   2.666475   4.049112
    15  H    2.065077   2.709918   4.108954   4.342171   3.817444
    16  H    2.662352   4.110260   2.583916   2.000611   2.677808
    17  H    2.061010   4.311825   4.094538   2.722549   1.988827
    18  H    2.584368   3.375334   5.008238   5.803757   4.747227
    19  H    3.300679   2.711921   5.149532   6.251081   5.556548
    20  H    3.880578   0.962358   3.261333   4.961283   5.630453
    21  H    4.539296   2.393305   0.962828   3.771786   5.576129
    22  H    3.937698   4.898390   3.140780   0.960843   3.218120
    23  H    2.608721   5.724558   4.767866   2.920011   0.961485
    24  H    2.363097   4.745931   6.158320   5.966757   4.034474
                    6          7          8          9         10
     6  O    0.000000
     7  C    3.775288   0.000000
     8  C    4.918638   1.525011   0.000000
     9  C    2.412627   1.520942   2.507522   0.000000
    10  C    5.065478   2.523575   1.522658   2.889019   0.000000
    11  C    4.054859   2.876106   2.502341   2.368404   1.533546
    12  C    1.405297   2.541034   3.875156   1.514442   4.275168
    13  H    4.058434   1.095259   2.137381   2.147270   2.826542
    14  H    5.097248   2.134698   1.110494   2.779050   2.135943
    15  H    2.630036   2.159766   2.792472   1.106523   3.267297
    16  H    5.317319   2.809096   2.136199   3.295731   1.097303
    17  H    4.171265   3.246514   2.785649   2.599040   2.175223
    18  H    2.079392   2.765084   4.126897   2.134241   4.406530
    19  H    2.022868   2.781149   4.217212   2.145368   4.933816
    20  H    4.341722   1.950117   2.643829   2.590701   4.005044
    21  H    6.211230   2.451146   1.916539   3.911379   3.206935
    22  H    6.432677   3.987571   2.601276   4.302251   1.943625
    23  H    5.159838   4.320885   3.903911   3.928463   2.485009
    24  H    0.962069   3.956354   4.908726   2.520723   4.761522
                   11         12         13         14         15
    11  C    0.000000
    12  C    3.651975   0.000000
    13  H    3.316369   2.740641   0.000000
    14  H    2.770650   4.206456   3.035407   0.000000
    15  H    2.603578   2.139790   3.062606   2.605561   0.000000
    16  H    2.145071   4.452997   2.670340   3.038910   3.951309
    17  H    1.103124   3.934123   3.958695   2.595820   2.341738
    18  H    3.947975   1.100413   2.509628   4.705640   3.045482
    19  H    4.487184   1.091617   3.057421   4.431804   2.485391
    20  H    4.259535   3.268150   2.814503   2.434573   2.435306
    21  H    4.396606   4.946356   2.655784   2.371054   4.232673
    22  H    2.661197   5.803960   4.553309   2.408175   4.216714
    23  H    1.919541   4.888917   4.337227   4.429684   4.406755
    24  H    3.586156   1.920493   4.184666   5.145080   2.819181
                   16         17         18         19         20
    16  H    0.000000
    17  H    3.065737   0.000000
    18  H    4.307910   4.489349   0.000000
    19  H    5.173001   4.638660   1.774718   0.000000
    20  H    4.568502   4.150734   3.877898   2.874217   0.000000
    21  H    3.417499   4.678537   5.045543   4.952477   2.817980
    22  H    2.813022   2.544870   6.152977   6.353056   4.827888
    23  H    2.326888   2.788919   4.826382   5.874922   5.998795
    24  H    4.964900   3.789403   2.346756   2.810557   4.834551
                   21         22         23         24
    21  H    0.000000
    22  H    3.940319   0.000000
    23  H    5.586332   3.516046   0.000000
    24  H    6.392242   6.128856   4.448141   0.000000
 Stoichiometry    C6H12O6
 Framework group  C1[X(C6H12O6)]
 Deg. of freedom    66
 Full point group                 C1      NOp   1
 RotChk:  IX=0 Diff= 1.01D-02
 Largest Abelian subgroup         C1      NOp   1
 Largest concise Abelian subgroup C1      NOp   1
                         Standard orientation:                         
 ---------------------------------------------------------------------
 Center     Atomic      Atomic             Coordinates (Angstroms)
 Number     Number       Type             X           Y           Z
 ---------------------------------------------------------------------
      1          8           0       -0.687301   -1.121664   -0.255216
      2          8           0       -0.778157    2.511161    0.230901
      3          8           0        1.962308    1.978640   -0.398974
      4          8           0        2.898405   -0.644686    0.249161
      5          8           0        0.934185   -2.706479   -0.108654
      6          8           0       -3.421665   -0.873227    0.203030
      7          6           0       -0.331436    1.250241   -0.237609
      8          6           0        1.118041    1.019751    0.176577
      9          6           0       -1.214842    0.101577    0.224375
     10          6           0        1.601973   -0.371355   -0.209584
     11          6           0        0.594895   -1.425667    0.265794
     12          6           0       -2.636429    0.182087   -0.291514
     13          1           0       -0.368424    1.317167   -1.330195
     14          1           0        1.156831    1.088993    1.284232
     15          1           0       -1.244375    0.078530    1.330264
     16          1           0        1.657551   -0.422221   -1.304297
     17          1           0        0.544497   -1.432188    1.367747
     18          1           0       -2.606647    0.183663   -1.391522
     19          1           0       -3.095754    1.116296    0.036971
     20          1           0       -0.841648    2.476237    1.190527
     21          1           0        1.538728    2.834297   -0.274604
     22          1           0        2.924095   -0.544936    1.204468
     23          1           0        1.249195   -2.694909   -1.016997
     24          1           0       -2.969463   -1.690697   -0.026824
 ---------------------------------------------------------------------
 Rotational constants (GHZ):           1.1652191           0.7936100           0.4952934
 Leave Link  202 at Fri Nov  1 11:00:36 2024, MaxMem=  4294967296 cpu:               0.1 elap:               0.0
 (Enter /home/matma/Software/gaussian16.B01_files/AVX2/tar//g16/l301.exe)
 Standard basis: 6-311+G(d,p) (5D, 7F)
 Ernie: Thresh=  0.10000D-02 Tol=  0.10000D-05 Strict=F.
 There are   348 symmetry adapted cartesian basis functions of A   symmetry.
 There are   336 symmetry adapted basis functions of A   symmetry.
   336 basis functions,   528 primitive gaussians,   348 cartesian basis functions
    48 alpha electrons       48 beta electrons
       nuclear repulsion energy       827.3273070200 Hartrees.
 IExCor= 1009 DFT=T Ex+Corr=PBE1PBE ExCW=0 ScaHFX=  0.250000
 ScaDFX=  0.750000  0.750000  1.000000  1.000000 ScalE2=  1.000000  1.000000
 IRadAn=  99590 IRanWt=     -1 IRanGd=            0 ICorTp=0 IEmpDi=131
 NAtoms=   24 NActive=   24 NUniq=   24 SFac= 1.00D+00 NAtFMM=   60 NAOKFM=F Big=F
 Integral buffers will be    131072 words long.
 Raffenetti 2 integral format.
 Two-electron integral symmetry is turned on.
 R6Disp:  Grimme-D3 Dispersion energy=       -0.0157121497 Hartrees.
 Nuclear repulsion after empirical dispersion term =      827.3115948703 Hartrees.
 Leave Link  301 at Fri Nov  1 11:00:36 2024, MaxMem=  4294967296 cpu:               0.8 elap:               0.0
 (Enter /home/matma/Software/gaussian16.B01_files/AVX2/tar//g16/l302.exe)
 NPDir=0 NMtPBC=     1 NCelOv=     1 NCel=       1 NClECP=     1 NCelD=      1
         NCelK=      1 NCelE2=     1 NClLst=     1 CellRange=     0.0.
 One-electron integrals computed using PRISM.
 One-electron integral symmetry used in STVInt
 NBasis=   336 RedAO= T EigKep=  8.48D-06  NBF=   336
 NBsUse=   336 1.00D-06 EigRej= -1.00D+00 NBFU=   336
 Precomputing XC quadrature grid using
 IXCGrd= 4 IRadAn=       99590 IRanWt=          -1 IRanGd=           0 AccXCQ= 0.00D+00.
 Generated NRdTot=       0 NPtTot=           0 NUsed=           0 NTot=          32
 NSgBfM=   348   348   348   348   348 MxSgAt=    24 MxSgA2=    24.
 Leave Link  302 at Fri Nov  1 11:00:36 2024, MaxMem=  4294967296 cpu:               5.4 elap:               0.2
 (Enter /home/matma/Software/gaussian16.B01_files/AVX2/tar//g16/l303.exe)
 DipDrv:  MaxL=1.
 Leave Link  303 at Fri Nov  1 11:00:36 2024, MaxMem=  4294967296 cpu:               0.8 elap:               0.0
 (Enter /home/matma/Software/gaussian16.B01_files/AVX2/tar//g16/l401.exe)
 Initial guess from the checkpoint file:  "input.chk"
 B after Tr=    -0.000000    0.000000   -0.000000
         Rot=    0.999999    0.000518   -0.000445   -0.001157 Ang=   0.15 deg.
 Guess basis will be translated and rotated to current coordinates.
 JPrj=2 DoOrth=T DoCkMO=T.
 Generating alternative initial guess.
 ExpMin= 4.38D-02 ExpMax= 8.59D+03 ExpMxC= 1.30D+03 IAcc=4 IRadAn=    199590 AccDes= 0.00D+00
 Harris functional with IExCor= 1009 and IRadAn=  199590 diagonalized for initial guess.
 HarFok:  IExCor= 1009 AccDes= 0.00D+00 IRadAn=    199590 IDoV= 1 UseB2=F ITyADJ=14
 ICtDFT=  3500011 ScaDFX=  1.000000  1.000000  1.000000  1.000000
 FoFCou: FMM=F IPFlag=           0 FMFlag=      100000 FMFlg1=           0
         NFxFlg=           0 DoJE=T BraDBF=F KetDBF=T FulRan=T
         wScrn=  0.000000 ICntrl=       500 IOpCl=  0 I1Cent=   200000004 NGrid=           0
         NMat0=    1 NMatS0=      1 NMatT0=    0 NMatD0=    1 NMtDS0=    0 NMtDT0=    0
 Petite list used in FoFCou.
 Harris En= -686.792129434695    
 Leave Link  401 at Fri Nov  1 11:00:38 2024, MaxMem=  4294967296 cpu:              41.3 elap:               1.5
 (Enter /home/matma/Software/gaussian16.B01_files/AVX2/tar//g16/l502.exe)
 Integral symmetry usage will be decided dynamically.
 Closed shell SCF:
 Using DIIS extrapolation, IDIIS=  1040.
 NGot=  4294967296 LenX=  4294711890 LenY=  4294590345
 Requested convergence on RMS density matrix=1.00D-08 within 128 cycles.
 Requested convergence on MAX density matrix=1.00D-06.
 Requested convergence on             energy=1.00D-06.
 No special actions if energy rises.
 Fock matrices will be formed incrementally for  20 cycles.

 Cycle   1  Pass 1  IDiag  1:
 FoFJK:  IHMeth= 1 ICntrl=       0 DoSepK=F KAlg= 0 I1Cent=           0 FoldK=F
 IRaf= 920000000 NMat=       1 IRICut=       1 DoRegI=T DoRafI=F ISym2E= 0 IDoP0=0 IntGTp=1.
 FoFCou: FMM=F IPFlag=           0 FMFlag=      100000 FMFlg1=           0
         NFxFlg=           0 DoJE=F BraDBF=F KetDBF=F FulRan=T
         wScrn=  0.000000 ICntrl=         0 IOpCl=  0 I1Cent=           0 NGrid=           0
         NMat0=    1 NMatS0=      1 NMatT0=    0 NMatD0=    1 NMtDS0=    0 NMtDT0=    0
 Symmetry not used in FoFCou.
 E= -686.642467622189    
 DIIS: error= 3.23D-03 at cycle   1 NSaved=   1.
 NSaved= 1 IEnMin= 1 EnMin= -686.642467622189     IErMin= 1 ErrMin= 3.23D-03
 ErrMax= 3.23D-03  0.00D+00 EMaxC= 1.00D-01 BMatC= 9.74D-03 BMatP= 9.74D-03
 IDIUse=3 WtCom= 9.68D-01 WtEn= 3.23D-02
 Coeff-Com:  0.100D+01
 Coeff-En:   0.100D+01
 Coeff:      0.100D+01
 Gap=     0.593 Goal=   None    Shift=    0.000
 GapD=    0.593 DampG=2.000 DampE=1.000 DampFc=2.0000 IDamp=-1.
 RMSDP=2.07D-03 MaxDP=1.81D-01              OVMax= 2.51D-02

 Cycle   2  Pass 1  IDiag  1:
 RMSU=  2.06D-03    CP:  1.01D+00
 E= -686.655859672853     Delta-E=       -0.013392050664 Rises=F Damp=F
 DIIS: error= 4.86D-04 at cycle   2 NSaved=   2.
 NSaved= 2 IEnMin= 2 EnMin= -686.655859672853     IErMin= 2 ErrMin= 4.86D-04
 ErrMax= 4.86D-04  0.00D+00 EMaxC= 1.00D-01 BMatC= 2.95D-04 BMatP= 9.74D-03
 IDIUse=3 WtCom= 9.95D-01 WtEn= 4.86D-03
 Coeff-Com: -0.404D-01 0.104D+01
 Coeff-En:   0.000D+00 0.100D+01
 Coeff:     -0.402D-01 0.104D+01
 Gap=     0.272 Goal=   None    Shift=    0.000
 RMSDP=2.66D-04 MaxDP=1.82D-02 DE=-1.34D-02 OVMax= 4.30D-03

 Cycle   3  Pass 1  IDiag  1:
 RMSU=  2.42D-04    CP:  1.00D+00  1.02D+00
 E= -686.655822804972     Delta-E=        0.000036867881 Rises=F Damp=F
 DIIS: error= 7.58D-04 at cycle   3 NSaved=   3.
 NSaved= 3 IEnMin= 2 EnMin= -686.655859672853     IErMin= 2 ErrMin= 4.86D-04
 ErrMax= 7.58D-04  0.00D+00 EMaxC= 1.00D-01 BMatC= 4.47D-04 BMatP= 2.95D-04
 IDIUse=3 WtCom= 2.66D-01 WtEn= 7.34D-01
 Coeff-Com: -0.446D-01 0.601D+00 0.444D+00
 Coeff-En:   0.000D+00 0.539D+00 0.461D+00
 Coeff:     -0.119D-01 0.555D+00 0.457D+00
 Gap=     0.272 Goal=   None    Shift=    0.000
 RMSDP=1.58D-04 MaxDP=1.62D-02 DE= 3.69D-05 OVMax= 2.92D-03

 Cycle   4  Pass 1  IDiag  1:
 RMSU=  6.93D-05    CP:  1.01D+00  1.04D+00  5.58D-01
 E= -686.656123674690     Delta-E=       -0.000300869718 Rises=F Damp=F
 DIIS: error= 1.57D-04 at cycle   4 NSaved=   4.
 NSaved= 4 IEnMin= 4 EnMin= -686.656123674690     IErMin= 4 ErrMin= 1.57D-04
 ErrMax= 1.57D-04  0.00D+00 EMaxC= 1.00D-01 BMatC= 2.22D-05 BMatP= 2.95D-04
 IDIUse=3 WtCom= 9.98D-01 WtEn= 1.57D-03
 Coeff-Com: -0.102D-01 0.101D+00 0.211D+00 0.699D+00
 Coeff-En:   0.000D+00 0.000D+00 0.000D+00 0.100D+01
 Coeff:     -0.102D-01 0.100D+00 0.211D+00 0.699D+00
 Gap=     0.271 Goal=   None    Shift=    0.000
 RMSDP=3.12D-05 MaxDP=2.99D-03 DE=-3.01D-04 OVMax= 5.98D-04

 Cycle   5  Pass 1  IDiag  1:
 RMSU=  1.98D-05    CP:  1.00D+00  1.04D+00  6.20D-01  8.27D-01
 E= -686.656138833180     Delta-E=       -0.000015158489 Rises=F Damp=F
 DIIS: error= 2.87D-05 at cycle   5 NSaved=   5.
 NSaved= 5 IEnMin= 5 EnMin= -686.656138833180     IErMin= 5 ErrMin= 2.87D-05
 ErrMax= 2.87D-05  0.00D+00 EMaxC= 1.00D-01 BMatC= 7.33D-07 BMatP= 2.22D-05
 IDIUse=1 WtCom= 1.00D+00 WtEn= 0.00D+00
 Coeff-Com: -0.279D-02 0.180D-01 0.769D-01 0.317D+00 0.591D+00
 Coeff:     -0.279D-02 0.180D-01 0.769D-01 0.317D+00 0.591D+00
 Gap=     0.271 Goal=   None    Shift=    0.000
 RMSDP=5.92D-06 MaxDP=3.54D-04 DE=-1.52D-05 OVMax= 1.30D-04

 Cycle   6  Pass 1  IDiag  1:
 RMSU=  5.43D-06    CP:  1.00D+00  1.04D+00  6.18D-01  8.48D-01  9.37D-01
 E= -686.656139291390     Delta-E=       -0.000000458210 Rises=F Damp=F
 DIIS: error= 1.27D-05 at cycle   6 NSaved=   6.
 NSaved= 6 IEnMin= 6 EnMin= -686.656139291390     IErMin= 6 ErrMin= 1.27D-05
 ErrMax= 1.27D-05  0.00D+00 EMaxC= 1.00D-01 BMatC= 1.24D-07 BMatP= 7.33D-07
 IDIUse=1 WtCom= 1.00D+00 WtEn= 0.00D+00
 Coeff-Com:  0.223D-03-0.918D-02 0.669D-02 0.596D-01 0.322D+00 0.621D+00
 Coeff:      0.223D-03-0.918D-02 0.669D-02 0.596D-01 0.322D+00 0.621D+00
 Gap=     0.271 Goal=   None    Shift=    0.000
 RMSDP=2.99D-06 MaxDP=3.36D-04 DE=-4.58D-07 OVMax= 5.21D-05

 Cycle   7  Pass 1  IDiag  1:
 RMSU=  1.62D-06    CP:  1.00D+00  1.04D+00  6.24D-01  8.54D-01  9.47D-01
                    CP:  7.38D-01
 E= -686.656139375887     Delta-E=       -0.000000084497 Rises=F Damp=F
 DIIS: error= 2.66D-06 at cycle   7 NSaved=   7.
 NSaved= 7 IEnMin= 7 EnMin= -686.656139375887     IErMin= 7 ErrMin= 2.66D-06
 ErrMax= 2.66D-06  0.00D+00 EMaxC= 1.00D-01 BMatC= 6.44D-09 BMatP= 1.24D-07
 IDIUse=1 WtCom= 1.00D+00 WtEn= 0.00D+00
 Coeff-Com:  0.248D-03-0.568D-02 0.102D-03 0.168D-01 0.136D+00 0.312D+00
 Coeff-Com:  0.541D+00
 Coeff:      0.248D-03-0.568D-02 0.102D-03 0.168D-01 0.136D+00 0.312D+00
 Coeff:      0.541D+00
 Gap=     0.271 Goal=   None    Shift=    0.000
 RMSDP=6.51D-07 MaxDP=4.78D-05 DE=-8.45D-08 OVMax= 1.29D-05

 Cycle   8  Pass 1  IDiag  1:
 RMSU=  5.67D-07    CP:  1.00D+00  1.04D+00  6.24D-01  8.54D-01  9.55D-01
                    CP:  7.56D-01  9.12D-01
 E= -686.656139380762     Delta-E=       -0.000000004876 Rises=F Damp=F
 DIIS: error= 6.66D-07 at cycle   8 NSaved=   8.
 NSaved= 8 IEnMin= 8 EnMin= -686.656139380762     IErMin= 8 ErrMin= 6.66D-07
 ErrMax= 6.66D-07  0.00D+00 EMaxC= 1.00D-01 BMatC= 2.93D-10 BMatP= 6.44D-09
 IDIUse=1 WtCom= 1.00D+00 WtEn= 0.00D+00
 Coeff-Com:  0.701D-04-0.124D-02-0.481D-03 0.884D-03 0.179D-01 0.519D-01
 Coeff-Com:  0.203D+00 0.728D+00
 Coeff:      0.701D-04-0.124D-02-0.481D-03 0.884D-03 0.179D-01 0.519D-01
 Coeff:      0.203D+00 0.728D+00
 Gap=     0.271 Goal=   None    Shift=    0.000
 RMSDP=1.80D-07 MaxDP=1.10D-05 DE=-4.88D-09 OVMax= 3.37D-06

 Cycle   9  Pass 1  IDiag  1:
 RMSU=  1.32D-07    CP:  1.00D+00  1.04D+00  6.24D-01  8.54D-01  9.57D-01
                    CP:  7.61D-01  9.54D-01  8.86D-01
 E= -686.656139381010     Delta-E=       -0.000000000248 Rises=F Damp=F
 DIIS: error= 2.13D-07 at cycle   9 NSaved=   9.
 NSaved= 9 IEnMin= 9 EnMin= -686.656139381010     IErMin= 9 ErrMin= 2.13D-07
 ErrMax= 2.13D-07  0.00D+00 EMaxC= 1.00D-01 BMatC= 3.16D-11 BMatP= 2.93D-10
 IDIUse=1 WtCom= 1.00D+00 WtEn= 0.00D+00
 Coeff-Com:  0.980D-05-0.607D-04-0.180D-03-0.830D-03-0.372D-02-0.453D-02
 Coeff-Com:  0.379D-01 0.301D+00 0.670D+00
 Coeff:      0.980D-05-0.607D-04-0.180D-03-0.830D-03-0.372D-02-0.453D-02
 Coeff:      0.379D-01 0.301D+00 0.670D+00
 Gap=     0.271 Goal=   None    Shift=    0.000
 RMSDP=1.06D-07 MaxDP=1.59D-05 DE=-2.48D-10 OVMax= 1.07D-06

 Cycle  10  Pass 1  IDiag  1:
 RMSU=  4.22D-08    CP:  1.00D+00  1.04D+00  6.24D-01  8.54D-01  9.58D-01
                    CP:  7.63D-01  9.79D-01  9.38D-01  9.57D-01
 E= -686.656139381042     Delta-E=       -0.000000000031 Rises=F Damp=F
 DIIS: error= 1.11D-07 at cycle  10 NSaved=  10.
 NSaved=10 IEnMin=10 EnMin= -686.656139381042     IErMin=10 ErrMin= 1.11D-07
 ErrMax= 1.11D-07  0.00D+00 EMaxC= 1.00D-01 BMatC= 7.55D-12 BMatP= 3.16D-11
 IDIUse=1 WtCom= 1.00D+00 WtEn= 0.00D+00
 Coeff-Com: -0.293D-05 0.116D-03-0.392D-04-0.530D-03-0.424D-02-0.888D-02
 Coeff-Com: -0.330D-02 0.823D-01 0.378D+00 0.556D+00
 Coeff:     -0.293D-05 0.116D-03-0.392D-04-0.530D-03-0.424D-02-0.888D-02
 Coeff:     -0.330D-02 0.823D-01 0.378D+00 0.556D+00
 Gap=     0.271 Goal=   None    Shift=    0.000
 RMSDP=1.89D-08 MaxDP=1.83D-06 DE=-3.12D-11 OVMax= 3.78D-07

 Cycle  11  Pass 1  IDiag  1:
 RMSU=  1.44D-08    CP:  1.00D+00  1.04D+00  6.24D-01  8.54D-01  9.58D-01
                    CP:  7.63D-01  9.81D-01  9.54D-01  9.74D-01  9.31D-01
 E= -686.656139381042     Delta-E=       -0.000000000001 Rises=F Damp=F
 DIIS: error= 1.15D-08 at cycle  11 NSaved=  11.
 NSaved=11 IEnMin=11 EnMin= -686.656139381042     IErMin=11 ErrMin= 1.15D-08
 ErrMax= 1.15D-08  0.00D+00 EMaxC= 1.00D-01 BMatC= 1.61D-13 BMatP= 7.55D-12
 IDIUse=1 WtCom= 1.00D+00 WtEn= 0.00D+00
 Coeff-Com: -0.130D-05 0.384D-04-0.742D-05-0.130D-03-0.115D-02-0.261D-02
 Coeff-Com: -0.318D-02 0.108D-01 0.887D-01 0.192D+00 0.716D+00
 Coeff:     -0.130D-05 0.384D-04-0.742D-05-0.130D-03-0.115D-02-0.261D-02
 Coeff:     -0.318D-02 0.108D-01 0.887D-01 0.192D+00 0.716D+00
 Gap=     0.271 Goal=   None    Shift=    0.000
 RMSDP=4.24D-09 MaxDP=2.53D-07 DE=-6.82D-13 OVMax= 7.64D-08

 SCF Done:  E(RPBE1PBE) =  -686.656139381     A.U. after   11 cycles
            NFock= 11  Conv=0.42D-08     -V/T= 2.0032
 KE= 6.844671989917D+02 PE=-3.267850650483D+03 EE= 1.069415717240D+03
 Leave Link  502 at Fri Nov  1 11:00:54 2024, MaxMem=  4294967296 cpu:             441.5 elap:              15.8
 (Enter /home/matma/Software/gaussian16.B01_files/AVX2/tar//g16/l701.exe)
 ... and contract with generalized density number  0.
 Compute integral first derivatives.
 R6Disp: Adding Grimme-D3 dispersion energy 1st derivatives to the gradient.
 Leave Link  701 at Fri Nov  1 11:00:54 2024, MaxMem=  4294967296 cpu:               4.1 elap:               0.2
 (Enter /home/matma/Software/gaussian16.B01_files/AVX2/tar//g16/l702.exe)
 L702 exits ... SP integral derivatives will be done elsewhere.
 Leave Link  702 at Fri Nov  1 11:00:54 2024, MaxMem=  4294967296 cpu:               0.3 elap:               0.0
 (Enter /home/matma/Software/gaussian16.B01_files/AVX2/tar//g16/l703.exe)
 Integral derivatives from FoFJK, PRISM(SPDF).
 Compute integral first derivatives, UseDBF=F ICtDFT=           0.
 Calling FoFJK, ICntrl=      2127 FMM=F ISym2X=0 I1Cent= 0 IOpClX= 0 NMat=1 NMatS=1 NMatT=0.
 FoFJK:  IHMeth= 1 ICntrl=    2127 DoSepK=F KAlg= 0 I1Cent=           0 FoldK=F
 IRaf=         0 NMat=       1 IRICut=       1 DoRegI=T DoRafI=F ISym2E= 0 IDoP0=0 IntGTp=1.
 FoFCou: FMM=F IPFlag=           0 FMFlag=      100000 FMFlg1=         800
         NFxFlg=           0 DoJE=F BraDBF=F KetDBF=F FulRan=T
         wScrn=  0.000000 ICntrl=      2127 IOpCl=  0 I1Cent=           0 NGrid=           0
         NMat0=    1 NMatS0=      1 NMatT0=    0 NMatD0=    1 NMtDS0=    0 NMtDT0=    0
 Symmetry not used in FoFCou.
 Leave Link  703 at Fri Nov  1 11:00:58 2024, MaxMem=  4294967296 cpu:             123.3 elap:               4.4
 (Enter /home/matma/Software/gaussian16.B01_files/AVX2/tar//g16/l716.exe)
 Dipole        = 4.68051332D-02 5.56578677D-01 5.40949055D-01
 ***** Axes restored to original set *****
 -------------------------------------------------------------------
 Center     Atomic                   Forces (Hartrees/Bohr)
 Number     Number              X              Y              Z
 -------------------------------------------------------------------
      1        8           0.000527894    0.000285237    0.000286298
      2        8           0.000095972   -0.000348534    0.000161670
      3        8           0.000536332   -0.000895919   -0.000686567
      4        8           0.001009799    0.000287636    0.000584166
      5        8          -0.000527827   -0.001273576   -0.000887921
      6        8          -0.000118916    0.000049855    0.000086413
      7        6           0.000153652   -0.000440995    0.000093628
      8        6          -0.000866773    0.000766769   -0.000546840
      9        6          -0.000275517    0.000197975   -0.000341024
     10        6          -0.000284217   -0.000401214   -0.000252868
     11        6           0.000639791    0.001866082    0.000682143
     12        6           0.000118925   -0.000040327    0.000115396
     13        1          -0.000133490    0.000334576    0.000140273
     14        1           0.000150863    0.000064946   -0.000071158
     15        1           0.000031139    0.000064398    0.000047320
     16        1          -0.000397647   -0.000058280    0.000124531
     17        1          -0.000439444   -0.000108070    0.000208760
     18        1          -0.000131145   -0.000073458   -0.000012671
     19        1          -0.000003086   -0.000063552    0.000022845
     20        1          -0.000168046   -0.000041769    0.000053189
     21        1           0.000169449   -0.000063454    0.000370946
     22        1           0.000089811   -0.000195781    0.000032008
     23        1          -0.000203612    0.000037576   -0.000052904
     24        1           0.000026092    0.000049877   -0.000157635
 -------------------------------------------------------------------
 Cartesian Forces:  Max     0.001866082 RMS     0.000442080
 Leave Link  716 at Fri Nov  1 11:00:58 2024, MaxMem=  4294967296 cpu:               0.4 elap:               0.0
 (Enter /home/matma/Software/gaussian16.B01_files/AVX2/tar//g16/l103.exe)

 GradGradGradGradGradGradGradGradGradGradGradGradGradGradGradGradGradGrad
 Berny optimization.
 Using GEDIIS/GDIIS optimizer.
 FormGI is forming the generalized inverse of G from B-inverse, IUseBI=4.
 Internal  Forces:  Max     0.001611576 RMS     0.000262119
 Search for a local minimum.
 Step number   3 out of a maximum of  142
 All quantities printed in internal units (Hartrees-Bohrs-Radians)
 RMS Force = .26212D-03 SwitMx=.10000D-02 MixMth= 2
 Mixed Optimization -- En-DIIS/RFO-DIIS
 Swapping is turned off.
 Update second derivatives using D2CorX and points    2    3
 DE= -1.59D-03 DEPred=-1.70D-03 R= 9.35D-01
 TightC=F SS=  1.41D+00  RLast= 6.08D-01 DXNew= 8.4853D-01 1.8237D+00
 Trust test= 9.35D-01 RLast= 6.08D-01 DXMaxT set to 8.49D-01
 ITU=  1  1  0
     Eigenvalues ---   -0.00002   0.00073   0.00303   0.00312   0.00368
     Eigenvalues ---    0.00425   0.00671   0.00774   0.00823   0.02352
     Eigenvalues ---    0.02420   0.03647   0.04174   0.04650   0.04914
     Eigenvalues ---    0.05011   0.05284   0.05683   0.05847   0.05907
     Eigenvalues ---    0.06241   0.06529   0.06709   0.06869   0.07050
     Eigenvalues ---    0.08536   0.09479   0.09749   0.10815   0.12190
     Eigenvalues ---    0.13879   0.14751   0.15545   0.15861   0.16337
     Eigenvalues ---    0.17073   0.17232   0.17809   0.19592   0.20219
     Eigenvalues ---    0.20552   0.23859   0.24255   0.24633   0.26407
     Eigenvalues ---    0.28134   0.29007   0.29889   0.31309   0.31864
     Eigenvalues ---    0.32807   0.33051   0.33196   0.33426   0.33860
     Eigenvalues ---    0.34315   0.36238   0.36515   0.37571   0.39336
     Eigenvalues ---    0.39789   0.49674   0.49736   0.49834   0.49909
     Eigenvalues ---    0.50219
 Eigenvalue     1 is  -1.73D-05 should be greater than     0.000000 Eigenvector:
                          D14       D13       D15       D16       D17
   1                    0.55698   0.55679   0.54815   0.12363   0.11694
                          D18       D10       D11       D8        D66
   1                    0.11478   0.05859   0.04986   0.04789   0.04774
 Use linear search instead of GDIIS.
 RFO step:  Lambda=-3.50566006D-04 EMin=-1.00000000D-04
 Quartic linear search produced a step of  0.30844.
 Iteration  1 RMS(Cart)=  0.04649515 RMS(Int)=  0.04073372
 Iteration  2 RMS(Cart)=  0.02840229 RMS(Int)=  0.01085322
 Iteration  3 RMS(Cart)=  0.01006467 RMS(Int)=  0.00042044
 Iteration  4 RMS(Cart)=  0.00037125 RMS(Int)=  0.00017148
 Iteration  5 RMS(Cart)=  0.00000034 RMS(Int)=  0.00017148
 ITry= 1 IFail=0 DXMaxC= 6.12D-01 DCOld= 1.00D+10 DXMaxT= 8.49D-01 DXLimC= 3.00D+00 Rises=F
 Variable       Old X    -DE/DX   Delta X   Delta X   Delta X     New X
                                 (Linear)    (Quad)   (Total)
    R1        2.67556   0.00026   0.00012  -0.00261  -0.00228   2.67329
    R2        2.67775  -0.00028   0.00131   0.00901   0.01042   2.68816
    R3        2.67847   0.00029  -0.00076   0.00070  -0.00005   2.67842
    R4        1.81859  -0.00004   0.00019   0.00010   0.00029   1.81888
    R5        2.64799   0.00098  -0.00355   0.00452   0.00097   2.64896
    R6        1.81948  -0.00008   0.00062   0.00069   0.00132   1.82080
    R7        2.64959   0.00083  -0.00261   0.00170  -0.00091   2.64868
    R8        1.81573  -0.00002   0.00016  -0.00080  -0.00064   1.81509
    R9        2.60193  -0.00161   0.00400  -0.01631  -0.01231   2.58962
   R10        1.81694  -0.00012   0.00038  -0.00030   0.00007   1.81701
   R11        2.65563   0.00015  -0.00082   0.00111   0.00028   2.65591
   R12        1.81805   0.00001   0.00020   0.00022   0.00043   1.81847
   R13        2.88185   0.00032   0.00005  -0.00143  -0.00146   2.88039
   R14        2.87416   0.00030  -0.00009   0.00284   0.00285   2.87702
   R15        2.06974   0.00011   0.00045   0.00008   0.00053   2.07027
   R16        2.87741   0.00050  -0.00062  -0.00387  -0.00471   2.87269
   R17        2.09853   0.00007   0.00204   0.00188   0.00393   2.10246
   R18        2.86188   0.00012  -0.00035   0.00110   0.00075   2.86263
   R19        2.09103  -0.00005   0.00046  -0.00038   0.00008   2.09110
   R20        2.89798   0.00065  -0.00032   0.00585   0.00543   2.90342
   R21        2.07360   0.00010   0.00048   0.00004   0.00053   2.07413
   R22        2.08460  -0.00019   0.00030  -0.00482  -0.00452   2.08009
   R23        2.07948  -0.00002   0.00034  -0.00040  -0.00005   2.07943
   R24        2.06286   0.00005   0.00030   0.00013   0.00043   2.06329
    A1        1.98009   0.00020  -0.00056   0.00826   0.00736   1.98744
    A2        1.89454   0.00017   0.00085   0.00086   0.00171   1.89625
    A3        1.86504   0.00059  -0.00273  -0.00082  -0.00355   1.86149
    A4        1.90687   0.00008   0.00150  -0.00022   0.00128   1.90815
    A5        1.90336   0.00000  -0.00052   0.00254   0.00202   1.90538
    A6        1.86645   0.00014  -0.00031   0.00011  -0.00020   1.86625
    A7        1.92223   0.00007   0.00057  -0.00088  -0.00014   1.92209
    A8        1.96969   0.00010   0.00535  -0.00075   0.00484   1.97452
    A9        1.83873  -0.00006  -0.00176   0.00294   0.00110   1.83983
   A10        1.93416  -0.00003  -0.00096  -0.00581  -0.00724   1.92691
   A11        1.88837   0.00003  -0.00080   0.00228   0.00157   1.88994
   A12        1.90661  -0.00011  -0.00268   0.00290   0.00025   1.90686
   A13        1.93658   0.00010   0.00381   0.00119   0.00539   1.94197
   A14        1.90660  -0.00001   0.00641   0.00701   0.01381   1.92041
   A15        1.92407  -0.00026   0.00553  -0.01186  -0.00645   1.91762
   A16        1.95119  -0.00017  -0.00466  -0.01004  -0.01558   1.93560
   A17        1.86991   0.00025  -0.00589   0.00185  -0.00403   1.86589
   A18        1.87426   0.00011  -0.00532   0.01177   0.00633   1.88058
   A19        1.91048   0.00003  -0.00201   0.00440   0.00220   1.91268
   A20        1.85490   0.00003   0.00009   0.00017   0.00036   1.85525
   A21        1.90761  -0.00002   0.00002   0.00049   0.00054   1.90815
   A22        1.98406  -0.00008   0.00186  -0.00290  -0.00093   1.98313
   A23        1.91220   0.00001  -0.00094  -0.00141  -0.00235   1.90985
   A24        1.89284   0.00002   0.00100  -0.00064   0.00032   1.89316
   A25        1.97033   0.00002   0.00496   0.00679   0.01211   1.98244
   A26        1.95170   0.00026   0.00719  -0.00764  -0.00002   1.95168
   A27        1.84475  -0.00021   0.00129  -0.00124  -0.00011   1.84464
   A28        1.91854  -0.00002  -0.00636  -0.00500  -0.01226   1.90628
   A29        1.88752   0.00001  -0.00106   0.00752   0.00635   1.89388
   A30        1.88667  -0.00009  -0.00629   0.00010  -0.00609   1.88058
   A31        1.89922  -0.00030   0.00284  -0.00818  -0.00510   1.89413
   A32        1.91002  -0.00011  -0.00652  -0.00384  -0.01082   1.89919
   A33        1.90416  -0.00003  -0.00057   0.00568   0.00517   1.90933
   A34        1.97513   0.00063   0.00328   0.00050   0.00396   1.97908
   A35        1.85191  -0.00025   0.00053   0.00280   0.00324   1.85515
   A36        1.92168   0.00005   0.00066   0.00341   0.00404   1.92572
   A37        1.94412  -0.00002   0.00133  -0.00281  -0.00148   1.94263
   A38        1.94764   0.00000   0.00329  -0.00424  -0.00096   1.94668
   A39        1.87723  -0.00002  -0.00013  -0.00064  -0.00077   1.87645
   A40        1.89146   0.00010  -0.00049   0.00226   0.00175   1.89321
   A41        1.91555   0.00000  -0.00166   0.00383   0.00217   1.91772
   A42        1.88701  -0.00007  -0.00249   0.00184  -0.00066   1.88635
    D1        1.11022   0.00000  -0.00031  -0.02062  -0.02104   1.08918
    D2       -3.02350  -0.00005   0.00083  -0.02147  -0.02067  -3.04417
    D3       -0.98415  -0.00002   0.00206  -0.02188  -0.01983  -1.00398
    D4        2.99655  -0.00048  -0.01274   0.02587   0.01319   3.00974
    D5       -1.12027   0.00003  -0.01099   0.01862   0.00786  -1.11241
    D6        0.98329   0.00000  -0.01460   0.02393   0.00934   0.99263
    D7       -1.19931  -0.00010  -0.02184  -0.03190  -0.05360  -1.25291
    D8        0.97234  -0.00002  -0.01880  -0.04073  -0.05965   0.91269
    D9        3.05128  -0.00014  -0.02021  -0.03575  -0.05597   2.99531
   D10        0.80240  -0.00002  -0.04736  -0.04769  -0.09483   0.70757
   D11        2.96130  -0.00018  -0.04637  -0.05473  -0.10130   2.86000
   D12       -1.26628  -0.00022  -0.04590  -0.04318  -0.08909  -1.35537
   D13        1.00426  -0.00002  -0.02427  -0.44957  -0.47404   0.53023
   D14       -1.17007  -0.00022  -0.02513  -0.44214  -0.46704  -1.63712
   D15        3.06417  -0.00013  -0.02211  -0.43753  -0.45967   2.60450
   D16        1.39237   0.00003  -0.01519  -0.04856  -0.06389   1.32849
   D17       -0.73489  -0.00003  -0.01110  -0.03813  -0.04910  -0.78399
   D18       -2.84402  -0.00030  -0.01417  -0.04452  -0.05869  -2.90270
   D19       -0.95943   0.00004   0.01262   0.00602   0.01863  -0.94080
   D20        1.15712   0.00016   0.01517   0.00399   0.01918   1.17630
   D21       -3.05918   0.00006   0.01395   0.00340   0.01735  -3.04183
   D22       -1.08904   0.00023   0.02602   0.03104   0.05702  -1.03202
   D23        3.06097   0.00030   0.01831   0.02825   0.04647   3.10744
   D24        1.01208   0.00011   0.03135   0.01843   0.04976   1.06184
   D25        3.00216   0.00008   0.01940   0.03685   0.05611   3.05827
   D26        0.86899   0.00015   0.01169   0.03405   0.04555   0.91455
   D27       -1.17990  -0.00004   0.02473   0.02424   0.04885  -1.13105
   D28        0.91226   0.00021   0.02378   0.03533   0.05913   0.97139
   D29       -1.22091   0.00028   0.01607   0.03254   0.04857  -1.17234
   D30        3.01338   0.00009   0.02911   0.02272   0.05187   3.06525
   D31       -3.11718  -0.00011  -0.00346   0.00115  -0.00226  -3.11944
   D32        1.09504  -0.00012  -0.00339  -0.00025  -0.00364   1.09141
   D33       -1.02562  -0.00010  -0.00526   0.00359  -0.00170  -1.02732
   D34       -0.95208   0.00003   0.00049  -0.00501  -0.00441  -0.95649
   D35       -3.02304   0.00001   0.00057  -0.00641  -0.00579  -3.02882
   D36        1.13948   0.00004  -0.00130  -0.00257  -0.00385   1.13564
   D37        1.12687  -0.00002  -0.00281  -0.00393  -0.00673   1.12014
   D38       -0.94409  -0.00003  -0.00273  -0.00533  -0.00811  -0.95220
   D39       -3.06475  -0.00001  -0.00460  -0.00149  -0.00617  -3.07092
   D40        1.07014  -0.00053  -0.03606  -0.03148  -0.06741   1.00273
   D41       -3.02071  -0.00019  -0.02779  -0.04037  -0.06802  -3.08873
   D42       -0.96455  -0.00030  -0.03981  -0.03867  -0.07854  -1.04309
   D43       -3.06279  -0.00054  -0.02981  -0.03184  -0.06151  -3.12430
   D44       -0.87045  -0.00019  -0.02154  -0.04072  -0.06212  -0.93257
   D45        1.18570  -0.00030  -0.03356  -0.03903  -0.07263   1.11307
   D46       -1.01651  -0.00027  -0.04321  -0.02801  -0.07122  -1.08772
   D47        1.17583   0.00008  -0.03495  -0.03689  -0.07183   1.10400
   D48       -3.05120  -0.00003  -0.04696  -0.03520  -0.08234  -3.13354
   D49        1.07701   0.00006   0.00532  -0.00476   0.00062   1.07764
   D50       -1.07198  -0.00000   0.00068   0.00085   0.00159  -1.07039
   D51       -3.12915   0.00002   0.00492  -0.00485   0.00013  -3.12902
   D52       -3.10361   0.00008   0.00399  -0.00090   0.00305  -3.10057
   D53        1.03058   0.00002  -0.00065   0.00472   0.00402   1.03459
   D54       -1.02659   0.00004   0.00359  -0.00099   0.00255  -1.02404
   D55       -0.97220   0.00005   0.00475  -0.00510  -0.00035  -0.97255
   D56       -3.12120  -0.00001   0.00011   0.00051   0.00062  -3.12058
   D57        1.10482   0.00002   0.00435  -0.00519  -0.00085   1.10398
   D58       -3.11377   0.00031   0.02762   0.01259   0.04008  -3.07369
   D59       -0.99256   0.00026   0.02884  -0.00031   0.02849  -0.96407
   D60        1.07656   0.00039   0.03205   0.00590   0.03801   1.11457
   D61        0.96650   0.00010   0.02060   0.01319   0.03360   1.00011
   D62        3.08771   0.00006   0.02182   0.00029   0.02202   3.10972
   D63       -1.12635   0.00018   0.02503   0.00650   0.03154  -1.09481
   D64       -1.09018   0.00015   0.02949   0.00689   0.03626  -1.05392
   D65        1.03102   0.00011   0.03072  -0.00601   0.02467   1.05570
   D66        3.10015   0.00023   0.03393   0.00020   0.03420   3.13435
         Item               Value     Threshold  Converged?
 Maximum Force            0.001612     0.000450     NO 
 RMS     Force            0.000262     0.000300     YES
 Maximum Displacement     0.611936     0.001800     NO 
 RMS     Displacement     0.077717     0.001200     NO 
 Predicted change in Energy=-3.987429D-04
 Lowest energy point so far.  Saving SCF results.
 GradGradGradGradGradGradGradGradGradGradGradGradGradGradGradGradGradGrad

 Leave Link  103 at Fri Nov  1 11:00:58 2024, MaxMem=  4294967296 cpu:               0.7 elap:               0.0
 (Enter /home/matma/Software/gaussian16.B01_files/AVX2/tar//g16/l202.exe)
                          Input orientation:                          
 ---------------------------------------------------------------------
 Center     Atomic      Atomic             Coordinates (Angstroms)
 Number     Number       Type             X           Y           Z
 ---------------------------------------------------------------------
      1          8           0       -0.650131    1.136509    0.258648
      2          8           0       -0.837600   -2.487884   -0.287007
      3          8           0        1.925765   -2.056730    0.186179
      4          8           0        2.924742    0.579262   -0.234698
      5          8           0        1.012223    2.673044    0.132873
      6          8           0       -3.400722    0.958540   -0.123155
      7          6           0       -0.349757   -1.244196    0.186436
      8          6           0        1.086963   -1.033584   -0.277003
      9          6           0       -1.218997   -0.064445   -0.226448
     10          6           0        1.611993    0.317545    0.180915
     11          6           0        0.639634    1.417789   -0.271383
     12          6           0       -2.626602   -0.123326    0.330261
     13          1           0       -0.349771   -1.328155    1.278752
     14          1           0        1.071167   -1.032025   -1.389461
     15          1           0       -1.280179   -0.020961   -1.330463
     16          1           0        1.640624    0.326640    1.278085
     17          1           0        0.583996    1.451070   -1.370206
     18          1           0       -2.566465   -0.144657    1.428795
     19          1           0       -3.118388   -1.040480   -0.000046
     20          1           0       -0.982059   -2.420600   -1.236233
     21          1           0        1.431367   -2.879274    0.100332
     22          1           0        3.087616    0.136383   -1.071300
     23          1           0        1.281143    2.640796    1.055460
     24          1           0       -2.914759    1.760637    0.092466
 ---------------------------------------------------------------------
                    Distance matrix (angstroms):
                    1          2          3          4          5
     1  O    0.000000
     2  O    3.670029   0.000000
     3  O    4.103324   2.836545   0.000000
     4  O    3.651525   4.854414   2.850183   0.000000
     5  O    2.267197   5.498484   4.817485   2.859503   0.000000
     6  O    2.782660   4.298172   6.128541   6.337807   4.741219
     7  C    2.400665   1.417356   2.416240   3.771564   4.147605
     8  C    2.830852   2.412267   1.401768   2.445505   3.729970
     9  C    1.414644   2.454014   3.745529   4.193447   3.549831
    10  C    2.407063   3.753650   2.394924   1.401620   2.431133
    11  C    1.422514   4.175733   3.733066   2.434377   1.370369
    12  C    2.344941   3.028644   4.948015   5.624075   4.593440
    13  H    2.684288   2.008619   2.627281   4.080589   4.379231
    14  H    3.222060   2.641652   2.064704   2.713938   4.006059
    15  H    2.064454   2.714846   4.089332   4.386608   3.828070
    16  H    2.634900   4.063576   2.637047   2.000323   2.685518
    17  H    2.067652   4.325461   4.065383   2.743815   1.983896
    18  H    2.585143   3.379891   5.037881   5.783132   4.735595
    19  H    3.301287   2.716491   5.148877   6.260835   5.556067
    20  H    3.872709   0.962510   3.257469   5.026464   5.638867
    21  H    4.525949   2.334829   0.963524   3.782048   5.568211
    22  H    4.091426   4.786357   2.782246   0.960506   3.491695
    23  H    2.574414   5.709172   4.820575   2.935277   0.961523
    24  H    2.354929   4.744315   6.165367   5.966779   4.031787
                    6          7          8          9         10
     6  O    0.000000
     7  C    3.775749   0.000000
     8  C    4.912387   1.524237   0.000000
     9  C    2.411866   1.522452   2.501846   0.000000
    10  C    5.062672   2.507494   1.520163   2.885544   0.000000
    11  C    4.069073   2.876570   2.491860   2.377718   1.536422
    12  C    1.405447   2.541861   3.871421   1.514841   4.264077
    13  H    4.062342   1.095539   2.138072   2.148986   2.786054
    14  H    5.056053   2.132485   1.112571   2.744751   2.140073
    15  H    2.629395   2.159391   2.781824   1.106564   3.280779
    16  H    5.270478   2.760587   2.138937   3.254842   1.097581
    17  H    4.204248   3.249536   2.760720   2.618349   2.178907
    18  H    2.078840   2.768797   4.128859   2.135868   4.385242
    19  H    2.022610   2.782372   4.214467   2.147461   4.924783
    20  H    4.302030   1.951338   2.669230   2.574349   4.029250
    21  H    6.174776   2.419359   1.915090   3.880010   3.202932
    22  H    6.608589   3.911959   2.449968   4.393292   1.943791
    23  H    5.112629   4.302116   3.913341   3.900297   2.504354
    24  H    0.962295   3.951846   4.894687   2.511621   4.752034
                   11         12         13         14         15
    11  C    0.000000
    12  C    3.661325   0.000000
    13  H    3.304853   2.745033   0.000000
    14  H    2.727252   4.178118   3.037453   0.000000
    15  H    2.622467   2.140406   3.063074   2.560187   0.000000
    16  H    2.143231   4.394320   2.588440   3.047303   3.931468
    17  H    1.100734   3.959577   3.951328   2.530507   2.375627
    18  H    3.951064   1.100385   2.517322   4.686401   3.046857
    19  H    4.498826   1.091847   3.063221   4.413946   2.487658
    20  H    4.277155   3.230463   2.813961   2.483417   2.419923
    21  H    4.385176   4.910726   2.639526   2.400325   4.191612
    22  H    2.876540   5.889321   4.413983   2.352120   4.378305
    23  H    1.915149   4.841152   4.296780   4.417165   4.397494
    24  H    3.589378   1.920650   4.186535   5.087502   2.805471
                   16         17         18         19         20
    16  H    0.000000
    17  H    3.065004   0.000000
    18  H    4.236086   4.506235   0.000000
    19  H    5.113789   4.668277   1.774459   0.000000
    20  H    4.554953   4.178554   3.846119   2.827860   0.000000
    21  H    3.421810   4.651065   5.022510   4.908311   2.796679
    22  H    2.765790   2.843565   6.188544   6.406799   4.809118
    23  H    2.352468   2.790218   4.764683   5.832818   5.999306
    24  H    4.920727   3.804803   2.353132   2.810032   4.794113
                   21         22         23         24
    21  H    0.000000
    22  H    3.634566   0.000000
    23  H    5.604107   3.749472   0.000000
    24  H    6.357488   6.326220   4.394045   0.000000
 Stoichiometry    C6H12O6
 Framework group  C1[X(C6H12O6)]
 Deg. of freedom    66
 Full point group                 C1      NOp   1
 RotChk:  IX=0 Diff= 1.63D-02
 Largest Abelian subgroup         C1      NOp   1
 Largest concise Abelian subgroup C1      NOp   1
                         Standard orientation:                         
 ---------------------------------------------------------------------
 Center     Atomic      Atomic             Coordinates (Angstroms)
 Number     Number       Type             X           Y           Z
 ---------------------------------------------------------------------
      1          8           0       -0.701061   -1.127017   -0.226186
      2          8           0       -0.749904    2.519141    0.188848
      3          8           0        1.986310    1.972382   -0.321222
      4          8           0        2.900557   -0.680756    0.177337
      5          8           0        0.908552   -2.716582   -0.075822
      6          8           0       -3.435280   -0.836880    0.201677
      7          6           0       -0.315862    1.242446   -0.247679
      8          6           0        1.121798    0.997393    0.195468
      9          6           0       -1.217319    0.110326    0.225121
     10          6           0        1.589543   -0.387375   -0.222300
     11          6           0        0.588653   -1.434970    0.288933
     12          6           0       -2.633133    0.199425   -0.306176
     13          1           0       -0.335378    1.286757   -1.342147
     14          1           0        1.128823    1.036670    1.307324
     15          1           0       -1.257289    0.109053    1.330962
     16          1           0        1.595281   -0.437200   -1.318734
     17          1           0        0.554475   -1.426439    1.389103
     18          1           0       -2.594873    0.178808   -1.405703
     19          1           0       -3.085522    1.144971   -0.000534
     20          1           0       -0.877098    2.491482    1.142516
     21          1           0        1.522966    2.814685   -0.256285
     22          1           0        3.096039   -0.214005    0.993733
     23          1           0        1.159421   -2.727409   -1.003978
     24          1           0       -2.982313   -1.663157    0.006488
 ---------------------------------------------------------------------
 Rotational constants (GHZ):           1.1688582           0.7936600           0.4941164
 Leave Link  202 at Fri Nov  1 11:00:58 2024, MaxMem=  4294967296 cpu:               0.1 elap:               0.0
 (Enter /home/matma/Software/gaussian16.B01_files/AVX2/tar//g16/l301.exe)
 Standard basis: 6-311+G(d,p) (5D, 7F)
 Ernie: Thresh=  0.10000D-02 Tol=  0.10000D-05 Strict=F.
 There are   348 symmetry adapted cartesian basis functions of A   symmetry.
 There are   336 symmetry adapted basis functions of A   symmetry.
   336 basis functions,   528 primitive gaussians,   348 cartesian basis functions
    48 alpha electrons       48 beta electrons
       nuclear repulsion energy       827.5843876756 Hartrees.
 IExCor= 1009 DFT=T Ex+Corr=PBE1PBE ExCW=0 ScaHFX=  0.250000
 ScaDFX=  0.750000  0.750000  1.000000  1.000000 ScalE2=  1.000000  1.000000
 IRadAn=  99590 IRanWt=     -1 IRanGd=            0 ICorTp=0 IEmpDi=131
 NAtoms=   24 NActive=   24 NUniq=   24 SFac= 1.00D+00 NAtFMM=   60 NAOKFM=F Big=F
 Integral buffers will be    131072 words long.
 Raffenetti 2 integral format.
 Two-electron integral symmetry is turned on.
 R6Disp:  Grimme-D3 Dispersion energy=       -0.0156977124 Hartrees.
 Nuclear repulsion after empirical dispersion term =      827.5686899632 Hartrees.
 Leave Link  301 at Fri Nov  1 11:00:58 2024, MaxMem=  4294967296 cpu:               0.8 elap:               0.0
 (Enter /home/matma/Software/gaussian16.B01_files/AVX2/tar//g16/l302.exe)
 NPDir=0 NMtPBC=     1 NCelOv=     1 NCel=       1 NClECP=     1 NCelD=      1
         NCelK=      1 NCelE2=     1 NClLst=     1 CellRange=     0.0.
 One-electron integrals computed using PRISM.
 One-electron integral symmetry used in STVInt
 NBasis=   336 RedAO= T EigKep=  8.60D-06  NBF=   336
 NBsUse=   336 1.00D-06 EigRej= -1.00D+00 NBFU=   336
 Precomputing XC quadrature grid using
 IXCGrd= 4 IRadAn=       99590 IRanWt=          -1 IRanGd=           0 AccXCQ= 0.00D+00.
 Generated NRdTot=       0 NPtTot=           0 NUsed=           0 NTot=          32
 NSgBfM=   348   348   348   348   348 MxSgAt=    24 MxSgA2=    24.
 Leave Link  302 at Fri Nov  1 11:00:59 2024, MaxMem=  4294967296 cpu:               5.9 elap:               0.2
 (Enter /home/matma/Software/gaussian16.B01_files/AVX2/tar//g16/l303.exe)
 DipDrv:  MaxL=1.
 Leave Link  303 at Fri Nov  1 11:00:59 2024, MaxMem=  4294967296 cpu:               0.8 elap:               0.0
 (Enter /home/matma/Software/gaussian16.B01_files/AVX2/tar//g16/l401.exe)
 Initial guess from the checkpoint file:  "input.chk"
 B after Tr=    -0.000000   -0.000000    0.000000
         Rot=    0.999991    0.002036   -0.000597    0.003717 Ang=   0.49 deg.
 Guess basis will be translated and rotated to current coordinates.
 JPrj=2 DoOrth=T DoCkMO=T.
 Generating alternative initial guess.
 ExpMin= 4.38D-02 ExpMax= 8.59D+03 ExpMxC= 1.30D+03 IAcc=4 IRadAn=    199590 AccDes= 0.00D+00
 Harris functional with IExCor= 1009 and IRadAn=  199590 diagonalized for initial guess.
 HarFok:  IExCor= 1009 AccDes= 0.00D+00 IRadAn=    199590 IDoV= 1 UseB2=F ITyADJ=14
 ICtDFT=  3500011 ScaDFX=  1.000000  1.000000  1.000000  1.000000
 FoFCou: FMM=F IPFlag=           0 FMFlag=      100000 FMFlg1=           0
         NFxFlg=           0 DoJE=T BraDBF=F KetDBF=T FulRan=T
         wScrn=  0.000000 ICntrl=       500 IOpCl=  0 I1Cent=   200000004 NGrid=           0
         NMat0=    1 NMatS0=      1 NMatT0=    0 NMatD0=    1 NMtDS0=    0 NMtDT0=    0
 Petite list used in FoFCou.
 Harris En= -686.790713976425    
 Leave Link  401 at Fri Nov  1 11:01:00 2024, MaxMem=  4294967296 cpu:              41.5 elap:               1.5
 (Enter /home/matma/Software/gaussian16.B01_files/AVX2/tar//g16/l502.exe)
 Integral symmetry usage will be decided dynamically.
 Closed shell SCF:
 Using DIIS extrapolation, IDIIS=  1040.
 NGot=  4294967296 LenX=  4294711890 LenY=  4294590345
 Requested convergence on RMS density matrix=1.00D-08 within 128 cycles.
 Requested convergence on MAX density matrix=1.00D-06.
 Requested convergence on             energy=1.00D-06.
 No special actions if energy rises.
 Fock matrices will be formed incrementally for  20 cycles.

 Cycle   1  Pass 1  IDiag  1:
 FoFJK:  IHMeth= 1 ICntrl=       0 DoSepK=F KAlg= 0 I1Cent=           0 FoldK=F
 IRaf= 920000000 NMat=       1 IRICut=       1 DoRegI=T DoRafI=F ISym2E= 0 IDoP0=0 IntGTp=1.
 FoFCou: FMM=F IPFlag=           0 FMFlag=      100000 FMFlg1=           0
         NFxFlg=           0 DoJE=F BraDBF=F KetDBF=F FulRan=T
         wScrn=  0.000000 ICntrl=         0 IOpCl=  0 I1Cent=           0 NGrid=           0
         NMat0=    1 NMatS0=      1 NMatT0=    0 NMatD0=    1 NMtDS0=    0 NMtDT0=    0
 Symmetry not used in FoFCou.
 E= -686.621061127866    
 DIIS: error= 5.54D-03 at cycle   1 NSaved=   1.
 NSaved= 1 IEnMin= 1 EnMin= -686.621061127866     IErMin= 1 ErrMin= 5.54D-03
 ErrMax= 5.54D-03  0.00D+00 EMaxC= 1.00D-01 BMatC= 2.82D-02 BMatP= 2.82D-02
 IDIUse=3 WtCom= 9.45D-01 WtEn= 5.54D-02
 Coeff-Com:  0.100D+01
 Coeff-En:   0.100D+01
 Coeff:      0.100D+01
 Gap=     0.595 Goal=   None    Shift=    0.000
 GapD=    0.595 DampG=2.000 DampE=1.000 DampFc=2.0000 IDamp=-1.
 RMSDP=3.91D-03 MaxDP=3.65D-01              OVMax= 5.53D-02

 Cycle   2  Pass 1  IDiag  1:
 RMSU=  3.69D-03    CP:  1.06D+00
 E= -686.655293633390     Delta-E=       -0.034232505524 Rises=F Damp=F
 DIIS: error= 1.11D-03 at cycle   2 NSaved=   2.
 NSaved= 2 IEnMin= 2 EnMin= -686.655293633390     IErMin= 2 ErrMin= 1.11D-03
 ErrMax= 1.11D-03  0.00D+00 EMaxC= 1.00D-01 BMatC= 1.23D-03 BMatP= 2.82D-02
 IDIUse=3 WtCom= 9.89D-01 WtEn= 1.11D-02
 Coeff-Com:  0.867D-02 0.991D+00
 Coeff-En:   0.000D+00 0.100D+01
 Coeff:      0.858D-02 0.991D+00
 Gap=     0.276 Goal=   None    Shift=    0.000
 RMSDP=4.92D-04 MaxDP=5.80D-02 DE=-3.42D-02 OVMax= 1.06D-02

 Cycle   3  Pass 1  IDiag  1:
 RMSU=  4.79D-04    CP:  1.06D+00  1.00D+00
 E= -686.655048604080     Delta-E=        0.000245029310 Rises=F Damp=F
 DIIS: error= 1.60D-03 at cycle   3 NSaved=   3.
 NSaved= 3 IEnMin= 2 EnMin= -686.655293633390     IErMin= 2 ErrMin= 1.11D-03
 ErrMax= 1.60D-03  0.00D+00 EMaxC= 1.00D-01 BMatC= 1.87D-03 BMatP= 1.23D-03
 IDIUse=3 WtCom= 2.00D-01 WtEn= 8.00D-01
 Coeff-Com: -0.374D-01 0.576D+00 0.461D+00
 Coeff-En:   0.000D+00 0.559D+00 0.441D+00
 Coeff:     -0.748D-02 0.562D+00 0.445D+00
 Gap=     0.272 Goal=   None    Shift=    0.000
 RMSDP=3.88D-04 MaxDP=5.67D-02 DE= 2.45D-04 OVMax= 5.80D-03

 Cycle   4  Pass 1  IDiag  1:
 RMSU=  1.61D-04    CP:  1.06D+00  1.05D+00  5.01D-01
 E= -686.656287483957     Delta-E=       -0.001238879878 Rises=F Damp=F
 DIIS: error= 2.02D-04 at cycle   4 NSaved=   4.
 NSaved= 4 IEnMin= 4 EnMin= -686.656287483957     IErMin= 4 ErrMin= 2.02D-04
 ErrMax= 2.02D-04  0.00D+00 EMaxC= 1.00D-01 BMatC= 3.49D-05 BMatP= 1.23D-03
 IDIUse=3 WtCom= 9.98D-01 WtEn= 2.02D-03
 Coeff-Com: -0.109D-01 0.103D+00 0.162D+00 0.746D+00
 Coeff-En:   0.000D+00 0.000D+00 0.000D+00 0.100D+01
 Coeff:     -0.109D-01 0.103D+00 0.162D+00 0.746D+00
 Gap=     0.271 Goal=   None    Shift=    0.000
 RMSDP=6.55D-05 MaxDP=5.04D-03 DE=-1.24D-03 OVMax= 1.17D-03

 Cycle   5  Pass 1  IDiag  1:
 RMSU=  4.97D-05    CP:  1.06D+00  1.05D+00  5.04D-01  8.42D-01
 E= -686.656311901580     Delta-E=       -0.000024417622 Rises=F Damp=F
 DIIS: error= 5.90D-05 at cycle   5 NSaved=   5.
 NSaved= 5 IEnMin= 5 EnMin= -686.656311901580     IErMin= 5 ErrMin= 5.90D-05
 ErrMax= 5.90D-05  0.00D+00 EMaxC= 1.00D-01 BMatC= 3.29D-06 BMatP= 3.49D-05
 IDIUse=1 WtCom= 1.00D+00 WtEn= 0.00D+00
 Coeff-Com: -0.244D-02 0.967D-02 0.448D-01 0.336D+00 0.612D+00
 Coeff:     -0.244D-02 0.967D-02 0.448D-01 0.336D+00 0.612D+00
 Gap=     0.271 Goal=   None    Shift=    0.000
 RMSDP=2.47D-05 MaxDP=2.81D-03 DE=-2.44D-05 OVMax= 3.27D-04

 Cycle   6  Pass 1  IDiag  1:
 RMSU=  1.73D-05    CP:  1.06D+00  1.05D+00  5.25D-01  8.47D-01  7.59D-01
 E= -686.656314313043     Delta-E=       -0.000002411464 Rises=F Damp=F
 DIIS: error= 2.35D-05 at cycle   6 NSaved=   6.
 NSaved= 6 IEnMin= 6 EnMin= -686.656314313043     IErMin= 6 ErrMin= 2.35D-05
 ErrMax= 2.35D-05  0.00D+00 EMaxC= 1.00D-01 BMatC= 6.03D-07 BMatP= 3.29D-06
 IDIUse=1 WtCom= 1.00D+00 WtEn= 0.00D+00
 Coeff-Com:  0.265D-03-0.114D-01-0.501D-04 0.769D-01 0.339D+00 0.595D+00
 Coeff:      0.265D-03-0.114D-01-0.501D-04 0.769D-01 0.339D+00 0.595D+00
 Gap=     0.271 Goal=   None    Shift=    0.000
 RMSDP=6.72D-06 MaxDP=6.82D-04 DE=-2.41D-06 OVMax= 1.21D-04

 Cycle   7  Pass 1  IDiag  1:
 RMSU=  4.07D-06    CP:  1.06D+00  1.05D+00  5.27D-01  8.58D-01  7.81D-01
                    CP:  8.18D-01
 E= -686.656314737712     Delta-E=       -0.000000424669 Rises=F Damp=F
 DIIS: error= 5.88D-06 at cycle   7 NSaved=   7.
 NSaved= 7 IEnMin= 7 EnMin= -686.656314737712     IErMin= 7 ErrMin= 5.88D-06
 ErrMax= 5.88D-06  0.00D+00 EMaxC= 1.00D-01 BMatC= 3.74D-08 BMatP= 6.03D-07
 IDIUse=1 WtCom= 1.00D+00 WtEn= 0.00D+00
 Coeff-Com:  0.311D-03-0.710D-02-0.350D-02 0.180D-01 0.139D+00 0.303D+00
 Coeff-Com:  0.550D+00
 Coeff:      0.311D-03-0.710D-02-0.350D-02 0.180D-01 0.139D+00 0.303D+00
 Coeff:      0.550D+00
 Gap=     0.271 Goal=   None    Shift=    0.000
 RMSDP=1.86D-06 MaxDP=2.50D-04 DE=-4.25D-07 OVMax= 2.70D-05

 Cycle   8  Pass 1  IDiag  1:
 RMSU=  1.34D-06    CP:  1.06D+00  1.05D+00  5.26D-01  8.62D-01  7.98D-01
                    CP:  7.98D-01  9.63D-01
 E= -686.656314766382     Delta-E=       -0.000000028670 Rises=F Damp=F
 DIIS: error= 1.14D-06 at cycle   8 NSaved=   8.
 NSaved= 8 IEnMin= 8 EnMin= -686.656314766382     IErMin= 8 ErrMin= 1.14D-06
 ErrMax= 1.14D-06  0.00D+00 EMaxC= 1.00D-01 BMatC= 1.45D-09 BMatP= 3.74D-08
 IDIUse=1 WtCom= 1.00D+00 WtEn= 0.00D+00
 Coeff-Com:  0.947D-04-0.166D-02-0.141D-02 0.109D-03 0.199D-01 0.517D-01
 Coeff-Com:  0.192D+00 0.739D+00
 Coeff:      0.947D-04-0.166D-02-0.141D-02 0.109D-03 0.199D-01 0.517D-01
 Coeff:      0.192D+00 0.739D+00
 Gap=     0.271 Goal=   None    Shift=    0.000
 RMSDP=5.11D-07 MaxDP=4.23D-05 DE=-2.87D-08 OVMax= 9.72D-06

 Cycle   9  Pass 1  IDiag  1:
 RMSU=  3.93D-07    CP:  1.06D+00  1.05D+00  5.26D-01  8.62D-01  8.00D-01
                    CP:  8.11D-01  1.01D+00  9.60D-01
 E= -686.656314767582     Delta-E=       -0.000000001200 Rises=F Damp=F
 DIIS: error= 4.51D-07 at cycle   9 NSaved=   9.
 NSaved= 9 IEnMin= 9 EnMin= -686.656314767582     IErMin= 9 ErrMin= 4.51D-07
 ErrMax= 4.51D-07  0.00D+00 EMaxC= 1.00D-01 BMatC= 2.20D-10 BMatP= 1.45D-09
 IDIUse=1 WtCom= 1.00D+00 WtEn= 0.00D+00
 Coeff-Com:  0.196D-04-0.204D-03-0.359D-03-0.113D-02-0.207D-02-0.163D-02
 Coeff-Com:  0.401D-01 0.335D+00 0.630D+00
 Coeff:      0.196D-04-0.204D-03-0.359D-03-0.113D-02-0.207D-02-0.163D-02
 Coeff:      0.401D-01 0.335D+00 0.630D+00
 Gap=     0.271 Goal=   None    Shift=    0.000
 RMSDP=1.99D-07 MaxDP=2.91D-05 DE=-1.20D-09 OVMax= 3.36D-06

 Cycle  10  Pass 1  IDiag  1:
 RMSU=  1.12D-07    CP:  1.06D+00  1.05D+00  5.26D-01  8.62D-01  7.99D-01
                    CP:  8.14D-01  1.04D+00  9.87D-01  9.92D-01
 E= -686.656314767748     Delta-E=       -0.000000000166 Rises=F Damp=F
 DIIS: error= 2.34D-07 at cycle  10 NSaved=  10.
 NSaved=10 IEnMin=10 EnMin= -686.656314767748     IErMin=10 ErrMin= 2.34D-07
 ErrMax= 2.34D-07  0.00D+00 EMaxC= 1.00D-01 BMatC= 4.10D-11 BMatP= 2.20D-10
 IDIUse=1 WtCom= 1.00D+00 WtEn= 0.00D+00
 Coeff-Com: -0.289D-06 0.849D-04-0.218D-04-0.562D-03-0.344D-02-0.707D-02
 Coeff-Com: -0.122D-02 0.954D-01 0.349D+00 0.568D+00
 Coeff:     -0.289D-06 0.849D-04-0.218D-04-0.562D-03-0.344D-02-0.707D-02
 Coeff:     -0.122D-02 0.954D-01 0.349D+00 0.568D+00
 Gap=     0.271 Goal=   None    Shift=    0.000
 RMSDP=6.78D-08 MaxDP=8.09D-06 DE=-1.66D-10 OVMax= 9.04D-07

 Cycle  11  Pass 1  IDiag  1:
 RMSU=  4.18D-08    CP:  1.06D+00  1.05D+00  5.26D-01  8.62D-01  7.99D-01
                    CP:  8.14D-01  1.04D+00  1.01D+00  1.04D+00  9.08D-01
 E= -686.656314767778     Delta-E=       -0.000000000030 Rises=F Damp=F
 DIIS: error= 4.40D-08 at cycle  11 NSaved=  11.
 NSaved=11 IEnMin=11 EnMin= -686.656314767778     IErMin=11 ErrMin= 4.40D-08
 ErrMax= 4.40D-08  0.00D+00 EMaxC= 1.00D-01 BMatC= 1.12D-12 BMatP= 4.10D-11
 IDIUse=1 WtCom= 1.00D+00 WtEn= 0.00D+00
 Coeff-Com: -0.112D-05 0.429D-04 0.132D-04-0.150D-03-0.117D-02-0.247D-02
 Coeff-Com: -0.279D-02 0.154D-01 0.949D-01 0.212D+00 0.684D+00
 Coeff:     -0.112D-05 0.429D-04 0.132D-04-0.150D-03-0.117D-02-0.247D-02
 Coeff:     -0.279D-02 0.154D-01 0.949D-01 0.212D+00 0.684D+00
 Gap=     0.271 Goal=   None    Shift=    0.000
 RMSDP=1.59D-08 MaxDP=1.91D-06 DE=-2.96D-11 OVMax= 2.11D-07

 Cycle  12  Pass 1  IDiag  1:
 RMSU=  9.67D-09    CP:  1.06D+00  1.05D+00  5.26D-01  8.62D-01  7.99D-01
                    CP:  8.14D-01  1.04D+00  1.01D+00  1.06D+00  9.11D-01
                    CP:  1.03D+00
 E= -686.656314767770     Delta-E=        0.000000000008 Rises=F Damp=F
 DIIS: error= 1.63D-08 at cycle  12 NSaved=  12.
 NSaved=12 IEnMin=11 EnMin= -686.656314767778     IErMin=12 ErrMin= 1.63D-08
 ErrMax= 1.63D-08  0.00D+00 EMaxC= 1.00D-01 BMatC= 1.18D-13 BMatP= 1.12D-12
 IDIUse=1 WtCom= 1.00D+00 WtEn= 0.00D+00
 Coeff-Com: -0.387D-06 0.949D-05 0.674D-05-0.169D-04-0.181D-03-0.368D-03
 Coeff-Com: -0.106D-02-0.226D-02 0.803D-02 0.366D-01 0.281D+00 0.678D+00
 Coeff:     -0.387D-06 0.949D-05 0.674D-05-0.169D-04-0.181D-03-0.368D-03
 Coeff:     -0.106D-02-0.226D-02 0.803D-02 0.366D-01 0.281D+00 0.678D+00
 Gap=     0.271 Goal=   None    Shift=    0.000
 RMSDP=5.37D-09 MaxDP=5.27D-07 DE= 8.19D-12 OVMax= 6.25D-08

 SCF Done:  E(RPBE1PBE) =  -686.656314768     A.U. after   12 cycles
            NFock= 12  Conv=0.54D-08     -V/T= 2.0032
 KE= 6.844688307873D+02 PE=-3.268332018089D+03 EE= 1.069638182571D+03
 Leave Link  502 at Fri Nov  1 11:01:18 2024, MaxMem=  4294967296 cpu:             484.1 elap:              17.3
 (Enter /home/matma/Software/gaussian16.B01_files/AVX2/tar//g16/l701.exe)
 ... and contract with generalized density number  0.
 Compute integral first derivatives.
 R6Disp: Adding Grimme-D3 dispersion energy 1st derivatives to the gradient.
 Leave Link  701 at Fri Nov  1 11:01:18 2024, MaxMem=  4294967296 cpu:               4.0 elap:               0.2
 (Enter /home/matma/Software/gaussian16.B01_files/AVX2/tar//g16/l702.exe)
 L702 exits ... SP integral derivatives will be done elsewhere.
 Leave Link  702 at Fri Nov  1 11:01:18 2024, MaxMem=  4294967296 cpu:               0.3 elap:               0.0
 (Enter /home/matma/Software/gaussian16.B01_files/AVX2/tar//g16/l703.exe)
 Integral derivatives from FoFJK, PRISM(SPDF).
 Compute integral first derivatives, UseDBF=F ICtDFT=           0.
 Calling FoFJK, ICntrl=      2127 FMM=F ISym2X=0 I1Cent= 0 IOpClX= 0 NMat=1 NMatS=1 NMatT=0.
 FoFJK:  IHMeth= 1 ICntrl=    2127 DoSepK=F KAlg= 0 I1Cent=           0 FoldK=F
 IRaf=         0 NMat=       1 IRICut=       1 DoRegI=T DoRafI=F ISym2E= 0 IDoP0=0 IntGTp=1.
 FoFCou: FMM=F IPFlag=           0 FMFlag=      100000 FMFlg1=         800
         NFxFlg=           0 DoJE=F BraDBF=F KetDBF=F FulRan=T
         wScrn=  0.000000 ICntrl=      2127 IOpCl=  0 I1Cent=           0 NGrid=           0
         NMat0=    1 NMatS0=      1 NMatT0=    0 NMatD0=    1 NMtDS0=    0 NMtDT0=    0
 Symmetry not used in FoFCou.
 Leave Link  703 at Fri Nov  1 11:01:22 2024, MaxMem=  4294967296 cpu:             124.6 elap:               4.5
 (Enter /home/matma/Software/gaussian16.B01_files/AVX2/tar//g16/l716.exe)
 Dipole        = 4.30203570D-02 7.46274305D-01 4.40268562D-01
 ***** Axes restored to original set *****
 -------------------------------------------------------------------
 Center     Atomic                   Forces (Hartrees/Bohr)
 Number     Number              X              Y              Z
 -------------------------------------------------------------------
      1        8           0.000964209    0.000193307   -0.000137151
      2        8          -0.000170841    0.000220814   -0.000093280
      3        8           0.000528862   -0.000343776    0.000618422
      4        8           0.000910589   -0.000707984   -0.003021283
      5        8           0.000545763    0.002059762    0.000346323
      6        8           0.000009402    0.000049633   -0.000013425
      7        6          -0.000123364   -0.000262458    0.000405631
      8        6          -0.001518173    0.000711147   -0.001669919
      9        6          -0.000054676   -0.000403412   -0.000100857
     10        6          -0.000162190   -0.000107852    0.001093930
     11        6          -0.000461582   -0.001656156    0.000412706
     12        6          -0.000039110    0.000325135    0.000001828
     13        1          -0.000186567    0.000077635    0.000016859
     14        1           0.000595983    0.000386683    0.000877065
     15        1           0.000000069   -0.000035089    0.000034890
     16        1          -0.001873689   -0.000245659    0.001087754
     17        1          -0.000327370   -0.000204766   -0.000228927
     18        1           0.000083471   -0.000093806   -0.000006496
     19        1           0.000086991   -0.000023218   -0.000012124
     20        1           0.000126423   -0.000140815    0.000091024
     21        1           0.000614006   -0.000059668   -0.000291520
     22        1           0.000553103    0.000366014    0.000593765
     23        1          -0.000036126   -0.000034703    0.000022617
     24        1          -0.000065180   -0.000070767   -0.000027830
 -------------------------------------------------------------------
 Cartesian Forces:  Max     0.003021283 RMS     0.000698002
 Leave Link  716 at Fri Nov  1 11:01:22 2024, MaxMem=  4294967296 cpu:               0.4 elap:               0.0
 (Enter /home/matma/Software/gaussian16.B01_files/AVX2/tar//g16/l103.exe)

 GradGradGradGradGradGradGradGradGradGradGradGradGradGradGradGradGradGrad
 Berny optimization.
 Using GEDIIS/GDIIS optimizer.
 FormGI is forming the generalized inverse of G from B-inverse, IUseBI=4.
 Internal  Forces:  Max     0.002101991 RMS     0.000430209
 Search for a local minimum.
 Step number   4 out of a maximum of  142
 All quantities printed in internal units (Hartrees-Bohrs-Radians)
 RMS Force = .43021D-03 SwitMx=.10000D-02 MixMth= 2
 Mixed Optimization -- En-DIIS/RFO-DIIS
 Update second derivatives using D2CorX and points    3    4
 DE= -1.75D-04 DEPred=-3.99D-04 R= 4.40D-01
 Trust test= 4.40D-01 RLast= 8.86D-01 DXMaxT set to 8.49D-01
 ITU=  0  1  1  0
 Use linear search instead of GDIIS.
     Eigenvalues ---   -0.00004   0.00069   0.00200   0.00311   0.00347
     Eigenvalues ---    0.00463   0.00659   0.00774   0.00817   0.02352
     Eigenvalues ---    0.02404   0.03667   0.04170   0.04646   0.04891
     Eigenvalues ---    0.05101   0.05343   0.05664   0.05813   0.05960
     Eigenvalues ---    0.06219   0.06564   0.06828   0.07044   0.07079
     Eigenvalues ---    0.08532   0.09561   0.09836   0.10755   0.12205
     Eigenvalues ---    0.13888   0.14795   0.15575   0.15865   0.16370
     Eigenvalues ---    0.17180   0.17275   0.17825   0.19617   0.20265
     Eigenvalues ---    0.20556   0.23885   0.24351   0.25227   0.26571
     Eigenvalues ---    0.28783   0.28987   0.29840   0.31417   0.31758
     Eigenvalues ---    0.32829   0.33051   0.33231   0.33545   0.33839
     Eigenvalues ---    0.34314   0.35729   0.36677   0.37236   0.39759
     Eigenvalues ---    0.40937   0.49696   0.49744   0.49834   0.49912
     Eigenvalues ---    0.50220
 Eigenvalue     1 is  -3.90D-05 should be greater than     0.000000 Eigenvector:
                          D14       D13       D15       D16       D17
   1                    0.54095   0.53581   0.53219   0.14337   0.14327
                          D18       D66       D65       D60       D63
   1                    0.13346   0.09585   0.08457   0.08379   0.08139
 RFO step:  Lambda=-5.41022782D-04 EMin=-3.89728589D-05
 Quartic linear search produced a step of  0.51643.
 Iteration  1 RMS(Cart)=  0.03663640 RMS(Int)=  0.05504218
 Iteration  2 RMS(Cart)=  0.02801187 RMS(Int)=  0.02497258
 Iteration  3 RMS(Cart)=  0.02295571 RMS(Int)=  0.00194573
 Iteration  4 RMS(Cart)=  0.00191709 RMS(Int)=  0.00008191
 Iteration  5 RMS(Cart)=  0.00000870 RMS(Int)=  0.00008174
 Iteration  6 RMS(Cart)=  0.00000000 RMS(Int)=  0.00008174
 ITry= 1 IFail=0 DXMaxC= 5.89D-01 DCOld= 1.00D+10 DXMaxT= 8.49D-01 DXLimC= 3.00D+00 Rises=F
 Variable       Old X    -DE/DX   Delta X   Delta X   Delta X     New X
                                 (Linear)    (Quad)   (Total)
    R1        2.67329   0.00053  -0.00118  -0.00113  -0.00219   2.67110
    R2        2.68816  -0.00076   0.00538   0.00023   0.00568   2.69384
    R3        2.67842  -0.00005  -0.00003  -0.00125  -0.00128   2.67713
    R4        1.81888  -0.00012   0.00015  -0.00043  -0.00028   1.81860
    R5        2.64896   0.00109   0.00050   0.00221   0.00272   2.65167
    R6        1.82080  -0.00024   0.00068  -0.00113  -0.00045   1.82034
    R7        2.64868   0.00203  -0.00047   0.00289   0.00242   2.65110
    R8        1.81509  -0.00059  -0.00033  -0.00253  -0.00286   1.81224
    R9        2.58962   0.00210  -0.00636   0.00858   0.00222   2.59184
   R10        1.81701   0.00001   0.00004   0.00014   0.00018   1.81719
   R11        2.65591   0.00003   0.00015  -0.00093  -0.00079   2.65512
   R12        1.81847  -0.00010   0.00022  -0.00021   0.00001   1.81849
   R13        2.88039   0.00025  -0.00076  -0.00079  -0.00161   2.87878
   R14        2.87702  -0.00007   0.00147   0.00012   0.00161   2.87863
   R15        2.07027   0.00001   0.00027  -0.00051  -0.00024   2.07003
   R16        2.87269  -0.00073  -0.00243  -0.00244  -0.00499   2.86770
   R17        2.10246  -0.00089   0.00203  -0.00138   0.00065   2.10311
   R18        2.86263  -0.00010   0.00039  -0.00018   0.00021   2.86284
   R19        2.09110  -0.00004   0.00004   0.00016   0.00020   2.09130
   R20        2.90342  -0.00036   0.00281  -0.00048   0.00232   2.90574
   R21        2.07413   0.00104   0.00027   0.00275   0.00302   2.07715
   R22        2.08009   0.00024  -0.00233  -0.00189  -0.00422   2.07586
   R23        2.07943   0.00000  -0.00003   0.00014   0.00011   2.07954
   R24        2.06329  -0.00002   0.00022  -0.00005   0.00017   2.06346
    A1        1.98744   0.00006   0.00380   0.00179   0.00543   1.99288
    A2        1.89625   0.00017   0.00089   0.00116   0.00204   1.89830
    A3        1.86149   0.00073  -0.00183   0.00675   0.00492   1.86641
    A4        1.90815   0.00117   0.00066   0.00365   0.00431   1.91246
    A5        1.90538  -0.00007   0.00104  -0.00336  -0.00231   1.90306
    A6        1.86625   0.00004  -0.00010  -0.00041  -0.00052   1.86574
    A7        1.92209   0.00015  -0.00007   0.00076   0.00078   1.92287
    A8        1.97452   0.00020   0.00250  -0.00111   0.00150   1.97602
    A9        1.83983  -0.00007   0.00057   0.00108   0.00159   1.84142
   A10        1.92691  -0.00035  -0.00374  -0.00458  -0.00856   1.91835
   A11        1.88994   0.00018   0.00081   0.00211   0.00297   1.89291
   A12        1.90686  -0.00011   0.00013   0.00222   0.00237   1.90924
   A13        1.94197   0.00057   0.00278   0.00673   0.00969   1.95166
   A14        1.92041  -0.00058   0.00713  -0.00654   0.00076   1.92117
   A15        1.91762  -0.00005  -0.00333  -0.00066  -0.00408   1.91354
   A16        1.93560  -0.00003  -0.00805   0.00681  -0.00167   1.93394
   A17        1.86589   0.00041  -0.00208  -0.00288  -0.00485   1.86103
   A18        1.88058  -0.00031   0.00327  -0.00370  -0.00042   1.88016
   A19        1.91268   0.00004   0.00113   0.00271   0.00375   1.91643
   A20        1.85525  -0.00004   0.00018  -0.00087  -0.00063   1.85462
   A21        1.90815   0.00000   0.00028   0.00051   0.00080   1.90895
   A22        1.98313  -0.00004  -0.00048  -0.00029  -0.00072   1.98240
   A23        1.90985   0.00004  -0.00121  -0.00189  -0.00310   1.90675
   A24        1.89316  -0.00000   0.00016  -0.00011   0.00003   1.89319
   A25        1.98244  -0.00086   0.00625  -0.00339   0.00298   1.98542
   A26        1.95168  -0.00008  -0.00001  -0.00699  -0.00682   1.94485
   A27        1.84464   0.00112  -0.00006   0.01838   0.01819   1.86283
   A28        1.90628   0.00050  -0.00633   0.00298  -0.00372   1.90256
   A29        1.89388  -0.00020   0.00328  -0.00264   0.00055   1.89443
   A30        1.88058  -0.00047  -0.00315  -0.00828  -0.01133   1.86924
   A31        1.89413   0.00013  -0.00263  -0.00298  -0.00556   1.88857
   A32        1.89919  -0.00021  -0.00559  -0.00242  -0.00818   1.89101
   A33        1.90933  -0.00017   0.00267   0.00582   0.00852   1.91785
   A34        1.97908   0.00034   0.00204  -0.00280  -0.00076   1.97832
   A35        1.85515  -0.00006   0.00167   0.00013   0.00178   1.85692
   A36        1.92572  -0.00004   0.00209   0.00260   0.00470   1.93041
   A37        1.94263   0.00014  -0.00077   0.00065  -0.00011   1.94252
   A38        1.94668   0.00006  -0.00049   0.00109   0.00059   1.94727
   A39        1.87645  -0.00001  -0.00040   0.00053   0.00013   1.87658
   A40        1.89321  -0.00010   0.00091  -0.00202  -0.00112   1.89209
   A41        1.91772  -0.00012   0.00112  -0.00051   0.00061   1.91833
   A42        1.88635   0.00003  -0.00034   0.00027  -0.00007   1.88629
    D1        1.08918   0.00022  -0.01087   0.00422  -0.00670   1.08248
    D2       -3.04417   0.00017  -0.01067   0.00491  -0.00577  -3.04995
    D3       -1.00398   0.00015  -0.01024   0.00457  -0.00568  -1.00966
    D4        3.00974  -0.00016   0.00681   0.00858   0.01536   3.02510
    D5       -1.11241   0.00021   0.00406   0.00171   0.00588  -1.10654
    D6        0.99263  -0.00007   0.00482   0.00692   0.01172   1.00435
    D7       -1.25291   0.00023  -0.02768  -0.00279  -0.03039  -1.28330
    D8        0.91269   0.00004  -0.03081  -0.00903  -0.03991   0.87278
    D9        2.99531  -0.00002  -0.02890  -0.00623  -0.03514   2.96017
   D10        0.70757   0.00058  -0.04897   0.05284   0.00399   0.71156
   D11        2.86000   0.00053  -0.05231   0.06158   0.00917   2.86917
   D12       -1.35537  -0.00024  -0.04601   0.05266   0.00663  -1.34874
   D13        0.53023  -0.00012  -0.24481  -0.32504  -0.57000  -0.03978
   D14       -1.63712  -0.00006  -0.24120  -0.32081  -0.56191  -2.19902
   D15        2.60450  -0.00011  -0.23739  -0.31817  -0.55550   2.04900
   D16        1.32849   0.00005  -0.03299  -0.04171  -0.07474   1.25375
   D17       -0.78399   0.00000  -0.02536  -0.03471  -0.06003  -0.84401
   D18       -2.90270  -0.00011  -0.03031  -0.03634  -0.06665  -2.96935
   D19       -0.94080  -0.00003   0.00962   0.00085   0.01047  -0.93033
   D20        1.17630  -0.00002   0.00990  -0.00053   0.00937   1.18567
   D21       -3.04183   0.00004   0.00896   0.00075   0.00971  -3.03212
   D22       -1.03202  -0.00033   0.02945  -0.00995   0.01948  -1.01254
   D23        3.10744   0.00004   0.02400  -0.01113   0.01281   3.12024
   D24        1.06184   0.00019   0.02570  -0.00868   0.01702   1.07886
   D25        3.05827  -0.00046   0.02898  -0.00579   0.02311   3.08138
   D26        0.91455  -0.00009   0.02352  -0.00696   0.01643   0.93098
   D27       -1.13105   0.00006   0.02523  -0.00452   0.02065  -1.11040
   D28        0.97139  -0.00023   0.03054  -0.00709   0.02346   0.99485
   D29       -1.17234   0.00014   0.02508  -0.00827   0.01678  -1.15555
   D30        3.06525   0.00029   0.02679  -0.00582   0.02100   3.08625
   D31       -3.11944  -0.00004  -0.00117   0.00636   0.00523  -3.11421
   D32        1.09141   0.00001  -0.00188   0.00577   0.00390   1.09530
   D33       -1.02732   0.00001  -0.00088   0.00748   0.00659  -1.02072
   D34       -0.95649   0.00005  -0.00228   0.00304   0.00083  -0.95565
   D35       -3.02882   0.00009  -0.00299   0.00245  -0.00050  -3.02933
   D36        1.13564   0.00009  -0.00199   0.00416   0.00220   1.13783
   D37        1.12014  -0.00001  -0.00348   0.00423   0.00075   1.12089
   D38       -0.95220   0.00004  -0.00419   0.00364  -0.00058  -0.95278
   D39       -3.07092   0.00004  -0.00319   0.00535   0.00212  -3.06881
   D40        1.00273  -0.00004  -0.03481   0.00626  -0.02849   0.97425
   D41       -3.08873  -0.00038  -0.03513  -0.00312  -0.03819  -3.12691
   D42       -1.04309  -0.00078  -0.04056  -0.01286  -0.05344  -1.09653
   D43       -3.12430   0.00026  -0.03177   0.01496  -0.01674  -3.14104
   D44       -0.93257  -0.00008  -0.03208   0.00558  -0.02644  -0.95901
   D45        1.11307  -0.00049  -0.03751  -0.00416  -0.04170   1.07137
   D46       -1.08772   0.00055  -0.03678   0.01307  -0.02373  -1.11145
   D47        1.10400   0.00021  -0.03709   0.00369  -0.03343   1.07057
   D48       -3.13354  -0.00019  -0.04252  -0.00605  -0.04869   3.10095
   D49        1.07764   0.00003   0.00032  -0.00086  -0.00051   1.07713
   D50       -1.07039  -0.00006   0.00082  -0.00127  -0.00042  -1.07080
   D51       -3.12902   0.00003   0.00007  -0.00012  -0.00003  -3.12905
   D52       -3.10057   0.00003   0.00157   0.00175   0.00330  -3.09727
   D53        1.03459  -0.00007   0.00207   0.00134   0.00339   1.03798
   D54       -1.02404   0.00003   0.00132   0.00249   0.00378  -1.02026
   D55       -0.97255   0.00005  -0.00018  -0.00094  -0.00112  -0.97367
   D56       -3.12058  -0.00005   0.00032  -0.00135  -0.00103  -3.12161
   D57        1.10398   0.00005  -0.00044  -0.00020  -0.00064   1.10334
   D58       -3.07369  -0.00078   0.02070  -0.01475   0.00586  -3.06783
   D59       -0.96407  -0.00055   0.01471  -0.02210  -0.00739  -0.97146
   D60        1.11457  -0.00042   0.01963  -0.02197  -0.00232   1.11226
   D61        1.00011   0.00001   0.01735  -0.00749   0.00972   1.00983
   D62        3.10972   0.00025   0.01137  -0.01484  -0.00352   3.10620
   D63       -1.09481   0.00037   0.01629  -0.01471   0.00155  -1.09327
   D64       -1.05392   0.00024   0.01873  -0.00132   0.01733  -1.03659
   D65        1.05570   0.00048   0.01274  -0.00867   0.00409   1.05978
   D66        3.13435   0.00060   0.01766  -0.00854   0.00916  -3.13968
         Item               Value     Threshold  Converged?
 Maximum Force            0.002102     0.000450     NO 
 RMS     Force            0.000430     0.000300     NO 
 Maximum Displacement     0.589175     0.001800     NO 
 RMS     Displacement     0.082424     0.001200     NO 
 Predicted change in Energy=-1.425310D-04
 Lowest energy point so far.  Saving SCF results.
 GradGradGradGradGradGradGradGradGradGradGradGradGradGradGradGradGradGrad

 Leave Link  103 at Fri Nov  1 11:01:22 2024, MaxMem=  4294967296 cpu:               0.7 elap:               0.0
 (Enter /home/matma/Software/gaussian16.B01_files/AVX2/tar//g16/l202.exe)
                          Input orientation:                          
 ---------------------------------------------------------------------
 Center     Atomic      Atomic             Coordinates (Angstroms)
 Number     Number       Type             X           Y           Z
 ---------------------------------------------------------------------
      1          8           0       -0.657823    1.145744    0.242292
      2          8           0       -0.827156   -2.484181   -0.284318
      3          8           0        1.946617   -2.031805    0.103452
      4          8           0        2.913552    0.610941   -0.272048
      5          8           0        0.993467    2.691997    0.110554
      6          8           0       -3.411310    0.946645   -0.092247
      7          6           0       -0.342548   -1.236265    0.179189
      8          6           0        1.080846   -1.009462   -0.313972
      9          6           0       -1.224828   -0.061943   -0.224552
     10          6           0        1.603744    0.337583    0.149629
     11          6           0        0.627305    1.436238   -0.301914
     12          6           0       -2.622743   -0.126471    0.355745
     13          1           0       -0.322347   -1.317349    1.271409
     14          1           0        1.033455   -0.990165   -1.425711
     15          1           0       -1.304405   -0.027796   -1.327830
     16          1           0        1.616408    0.348204    1.248686
     17          1           0        0.568821    1.474743   -1.398178
     18          1           0       -2.543165   -0.139537    1.453230
     19          1           0       -3.113969   -1.049371    0.040654
     20          1           0       -1.019134   -2.411835   -1.224558
     21          1           0        1.465584   -2.861427    0.012622
     22          1           0        3.257471   -0.139898   -0.759522
     23          1           0        1.206664    2.664560    1.047837
     24          1           0       -2.922707    1.752753    0.101351
 ---------------------------------------------------------------------
                    Distance matrix (angstroms):
                    1          2          3          4          5
     1  O    0.000000
     2  O    3.671831   0.000000
     3  O    4.110864   2.837045   0.000000
     4  O    3.647641   4.855185   2.839026   0.000000
     5  O    2.266057   5.501219   4.819010   2.857256   0.000000
     6  O    2.780872   4.299455   6.133257   6.336317   4.742304
     7  C    2.403611   1.416679   2.424644   3.770673   4.149806
     8  C    2.824414   2.411669   1.403205   2.446686   3.726749
     9  C    1.413487   2.455392   3.747800   4.192996   3.552086
    10  C    2.403414   3.749658   2.394513   1.402902   2.432536
    11  C    1.425518   4.181561   3.732590   2.430830   1.371545
    12  C    2.343568   3.031932   4.957116   5.620362   4.591389
    13  H    2.690437   2.009133   2.650051   4.070824   4.376506
    14  H    3.194489   2.645134   2.063303   2.725664   3.989991
    15  H    2.064109   2.711183   4.078451   4.394749   3.840109
    16  H    2.611709   4.042710   2.661774   2.015998   2.678949
    17  H    2.074618   4.343100   4.055749   2.740819   1.984516
    18  H    2.583182   3.385427   5.055761   5.771964   4.725265
    19  H    3.300279   2.719155   5.155449   6.259827   5.556416
    20  H    3.865044   0.962362   3.271652   5.050789   5.646432
    21  H    4.540817   2.342465   0.963284   3.772928   5.574317
    22  H    4.240995   4.733462   2.458125   0.958994   3.728590
    23  H    2.536143   5.693909   4.847189   2.978745   0.961616
    24  H    2.349048   4.742540   6.167106   5.958615   4.027243
                    6          7          8          9         10
     6  O    0.000000
     7  C    3.775722   0.000000
     8  C    4.904588   1.523384   0.000000
     9  C    2.411526   1.523304   2.494378   0.000000
    10  C    5.057690   2.503183   1.517523   2.881050   0.000000
    11  C    4.073583   2.883461   2.487427   2.383470   1.537650
    12  C    1.405031   2.542066   3.865846   1.514950   4.256879
    13  H    4.065331   1.095411   2.139434   2.151375   2.776151
    14  H    5.028449   2.128299   1.112916   2.721070   2.137718
    15  H    2.629686   2.157932   2.771462   1.106671   3.282334
    16  H    5.237764   2.737128   2.138219   3.226650   1.099181
    17  H    4.222060   3.266229   2.758433   2.637419   2.181721
    18  H    2.078934   2.769242   4.124709   2.135178   4.373085
    19  H    2.022413   2.781168   4.209968   2.148070   4.918570
    20  H    4.275982   1.951984   2.684350   2.562092   4.040690
    21  H    6.188417   2.436850   1.919495   3.889945   3.204921
    22  H    6.789586   3.878575   2.385865   4.514784   1.946627
    23  H    5.057342   4.286146   3.920306   3.868456   2.525723
    24  H    0.962301   3.949368   4.881677   2.506418   4.742763
                   11         12         13         14         15
    11  C    0.000000
    12  C    3.665704   0.000000
    13  H    3.310502   2.747444   0.000000
    14  H    2.704682   4.157804   3.036397   0.000000
    15  H    2.631995   2.140601   3.063238   2.530084   0.000000
    16  H    2.136937   4.358102   2.556042   3.046877   3.912921
    17  H    1.098498   3.978218   3.964424   2.508469   2.402405
    18  H    3.951642   1.100444   2.520383   4.669483   3.046523
    19  H    4.504746   1.091939   3.062633   4.399416   2.488150
    20  H    4.285989   3.208085   2.813052   2.504941   2.403266
    21  H    4.389939   4.930733   2.676830   2.399408   4.183194
    22  H    3.100223   5.985058   4.280908   2.472450   4.598506
    23  H    1.914748   4.788863   4.271237   4.416498   4.381557
    24  H    3.586836   1.919942   4.190040   5.050419   2.798538
                   16         17         18         19         20
    16  H    0.000000
    17  H    3.061440   0.000000
    18  H    4.193062   4.518947   0.000000
    19  H    5.078289   4.690878   1.774538   0.000000
    20  H    4.547618   4.202052   3.828388   2.800965   0.000000
    21  H    3.442722   4.647248   5.055106   4.925103   2.811862
    22  H    2.638983   3.200592   6.208353   6.485575   4.864906
    23  H    2.360876   2.793833   4.699843   5.785808   5.990638
    24  H    4.888016   3.810072   2.356351   2.809300   4.767119
                   21         22         23         24
    21  H    0.000000
    22  H    3.348699   0.000000
    23  H    5.628077   3.916292   0.000000
    24  H    6.368330   6.520571   4.333467   0.000000
 Stoichiometry    C6H12O6
 Framework group  C1[X(C6H12O6)]
 Deg. of freedom    66
 Full point group                 C1      NOp   1
 RotChk:  IX=0 Diff= 1.84D-02
 Largest Abelian subgroup         C1      NOp   1
 Largest concise Abelian subgroup C1      NOp   1
                         Standard orientation:                         
 ---------------------------------------------------------------------
 Center     Atomic      Atomic             Coordinates (Angstroms)
 Number     Number       Type             X           Y           Z
 ---------------------------------------------------------------------
      1          8           0       -0.713167   -1.124931   -0.209851
      2          8           0       -0.725576    2.527163    0.170153
      3          8           0        2.014748    1.949522   -0.283470
      4          8           0        2.890901   -0.712268    0.171835
      5          8           0        0.880792   -2.729058   -0.064646
      6          8           0       -3.444699   -0.803116    0.200532
      7          6           0       -0.304586    1.243256   -0.255673
      8          6           0        1.124223    0.980121    0.202546
      9          6           0       -1.217891    0.122224    0.223513
     10          6           0        1.579637   -0.404283   -0.220423
     11          6           0        0.576749   -1.444093    0.306243
     12          6           0       -2.630313    0.218812   -0.315753
     13          1           0       -0.316595    1.279288   -1.350426
     14          1           0        1.112084    1.007645    1.315055
     15          1           0       -1.263019    0.135861    1.329179
     16          1           0        1.556350   -0.459784   -1.317954
     17          1           0        0.552293   -1.435930    1.404439
     18          1           0       -2.585808    0.184362   -1.414756
     19          1           0       -3.075219    1.172495   -0.024413
     20          1           0       -0.889704    2.500548    1.118042
     21          1           0        1.569185    2.800612   -0.212521
     22          1           0        3.279037    0.043374    0.616836
     23          1           0        1.064479   -2.748005   -1.008366
     24          1           0       -2.993992   -1.635182    0.025741
 ---------------------------------------------------------------------
 Rotational constants (GHZ):           1.1707666           0.7935396           0.4934853
 Leave Link  202 at Fri Nov  1 11:01:23 2024, MaxMem=  4294967296 cpu:               0.1 elap:               0.0
 (Enter /home/matma/Software/gaussian16.B01_files/AVX2/tar//g16/l301.exe)
 Standard basis: 6-311+G(d,p) (5D, 7F)
 Ernie: Thresh=  0.10000D-02 Tol=  0.10000D-05 Strict=F.
 There are   348 symmetry adapted cartesian basis functions of A   symmetry.
 There are   336 symmetry adapted basis functions of A   symmetry.
   336 basis functions,   528 primitive gaussians,   348 cartesian basis functions
    48 alpha electrons       48 beta electrons
       nuclear repulsion energy       827.6283328893 Hartrees.
 IExCor= 1009 DFT=T Ex+Corr=PBE1PBE ExCW=0 ScaHFX=  0.250000
 ScaDFX=  0.750000  0.750000  1.000000  1.000000 ScalE2=  1.000000  1.000000
 IRadAn=  99590 IRanWt=     -1 IRanGd=            0 ICorTp=0 IEmpDi=131
 NAtoms=   24 NActive=   24 NUniq=   24 SFac= 1.00D+00 NAtFMM=   60 NAOKFM=F Big=F
 Integral buffers will be    131072 words long.
 Raffenetti 2 integral format.
 Two-electron integral symmetry is turned on.
 R6Disp:  Grimme-D3 Dispersion energy=       -0.0157159778 Hartrees.
 Nuclear repulsion after empirical dispersion term =      827.6126169115 Hartrees.
 Leave Link  301 at Fri Nov  1 11:01:23 2024, MaxMem=  4294967296 cpu:               0.8 elap:               0.0
 (Enter /home/matma/Software/gaussian16.B01_files/AVX2/tar//g16/l302.exe)
 NPDir=0 NMtPBC=     1 NCelOv=     1 NCel=       1 NClECP=     1 NCelD=      1
         NCelK=      1 NCelE2=     1 NClLst=     1 CellRange=     0.0.
 One-electron integrals computed using PRISM.
 One-electron integral symmetry used in STVInt
 NBasis=   336 RedAO= T EigKep=  8.72D-06  NBF=   336
 NBsUse=   336 1.00D-06 EigRej= -1.00D+00 NBFU=   336
 Precomputing XC quadrature grid using
 IXCGrd= 4 IRadAn=       99590 IRanWt=          -1 IRanGd=           0 AccXCQ= 0.00D+00.
 Generated NRdTot=       0 NPtTot=           0 NUsed=           0 NTot=          32
 NSgBfM=   348   348   348   348   348 MxSgAt=    24 MxSgA2=    24.
 Leave Link  302 at Fri Nov  1 11:01:23 2024, MaxMem=  4294967296 cpu:               5.4 elap:               0.2
 (Enter /home/matma/Software/gaussian16.B01_files/AVX2/tar//g16/l303.exe)
 DipDrv:  MaxL=1.
 Leave Link  303 at Fri Nov  1 11:01:23 2024, MaxMem=  4294967296 cpu:               0.8 elap:               0.0
 (Enter /home/matma/Software/gaussian16.B01_files/AVX2/tar//g16/l401.exe)
 Initial guess from the checkpoint file:  "input.chk"
 B after Tr=     0.000000   -0.000000   -0.000000
         Rot=    0.999990    0.001271   -0.000414    0.004361 Ang=   0.52 deg.
 Guess basis will be translated and rotated to current coordinates.
 JPrj=2 DoOrth=T DoCkMO=T.
 Generating alternative initial guess.
 ExpMin= 4.38D-02 ExpMax= 8.59D+03 ExpMxC= 1.30D+03 IAcc=4 IRadAn=    199590 AccDes= 0.00D+00
 Harris functional with IExCor= 1009 and IRadAn=  199590 diagonalized for initial guess.
 HarFok:  IExCor= 1009 AccDes= 0.00D+00 IRadAn=    199590 IDoV= 1 UseB2=F ITyADJ=14
 ICtDFT=  3500011 ScaDFX=  1.000000  1.000000  1.000000  1.000000
 FoFCou: FMM=F IPFlag=           0 FMFlag=      100000 FMFlg1=           0
         NFxFlg=           0 DoJE=T BraDBF=F KetDBF=T FulRan=T
         wScrn=  0.000000 ICntrl=       500 IOpCl=  0 I1Cent=   200000004 NGrid=           0
         NMat0=    1 NMatS0=      1 NMatT0=    0 NMatD0=    1 NMtDS0=    0 NMtDT0=    0
 Petite list used in FoFCou.
 Harris En= -686.789694249906    
 Leave Link  401 at Fri Nov  1 11:01:24 2024, MaxMem=  4294967296 cpu:              40.5 elap:               1.5
 (Enter /home/matma/Software/gaussian16.B01_files/AVX2/tar//g16/l502.exe)
 Integral symmetry usage will be decided dynamically.
 Closed shell SCF:
 Using DIIS extrapolation, IDIIS=  1040.
 NGot=  4294967296 LenX=  4294711890 LenY=  4294590345
 Requested convergence on RMS density matrix=1.00D-08 within 128 cycles.
 Requested convergence on MAX density matrix=1.00D-06.
 Requested convergence on             energy=1.00D-06.
 No special actions if energy rises.
 Fock matrices will be formed incrementally for  20 cycles.

 Cycle   1  Pass 1  IDiag  1:
 FoFJK:  IHMeth= 1 ICntrl=       0 DoSepK=F KAlg= 0 I1Cent=           0 FoldK=F
 IRaf= 920000000 NMat=       1 IRICut=       1 DoRegI=T DoRafI=F ISym2E= 0 IDoP0=0 IntGTp=1.
 FoFCou: FMM=F IPFlag=           0 FMFlag=      100000 FMFlg1=           0
         NFxFlg=           0 DoJE=F BraDBF=F KetDBF=F FulRan=T
         wScrn=  0.000000 ICntrl=         0 IOpCl=  0 I1Cent=           0 NGrid=           0
         NMat0=    1 NMatS0=      1 NMatT0=    0 NMatD0=    1 NMtDS0=    0 NMtDT0=    0
 Symmetry not used in FoFCou.
 E= -686.613224724469    
 DIIS: error= 8.32D-03 at cycle   1 NSaved=   1.
 NSaved= 1 IEnMin= 1 EnMin= -686.613224724469     IErMin= 1 ErrMin= 8.32D-03
 ErrMax= 8.32D-03  0.00D+00 EMaxC= 1.00D-01 BMatC= 3.55D-02 BMatP= 3.55D-02
 IDIUse=3 WtCom= 9.17D-01 WtEn= 8.32D-02
 Coeff-Com:  0.100D+01
 Coeff-En:   0.100D+01
 Coeff:      0.100D+01
 Gap=     0.600 Goal=   None    Shift=    0.000
 GapD=    0.600 DampG=2.000 DampE=1.000 DampFc=2.0000 IDamp=-1.
 RMSDP=3.32D-03 MaxDP=2.57D-01              OVMax= 6.65D-02

 Cycle   2  Pass 1  IDiag  1:
 RMSU=  3.27D-03    CP:  9.74D-01
 E= -686.656231812328     Delta-E=       -0.043007087860 Rises=F Damp=F
 DIIS: error= 1.39D-03 at cycle   2 NSaved=   2.
 NSaved= 2 IEnMin= 2 EnMin= -686.656231812328     IErMin= 2 ErrMin= 1.39D-03
 ErrMax= 1.39D-03  0.00D+00 EMaxC= 1.00D-01 BMatC= 1.76D-03 BMatP= 3.55D-02
 IDIUse=3 WtCom= 9.86D-01 WtEn= 1.39D-02
 Coeff-Com:  0.252D-01 0.975D+00
 Coeff-En:   0.000D+00 0.100D+01
 Coeff:      0.248D-01 0.975D+00
 Gap=     0.280 Goal=   None    Shift=    0.000
 RMSDP=5.78D-04 MaxDP=4.58D-02 DE=-4.30D-02 OVMax= 1.30D-02

 Cycle   3  Pass 1  IDiag  1:
 RMSU=  5.50D-04    CP:  9.67D-01  9.77D-01
 E= -686.656113318036     Delta-E=        0.000118494292 Rises=F Damp=F
 DIIS: error= 2.06D-03 at cycle   3 NSaved=   3.
 NSaved= 3 IEnMin= 2 EnMin= -686.656231812328     IErMin= 2 ErrMin= 1.39D-03
 ErrMax= 2.06D-03  0.00D+00 EMaxC= 1.00D-01 BMatC= 2.26D-03 BMatP= 1.76D-03
 IDIUse=3 WtCom= 1.80D-01 WtEn= 8.20D-01
 Coeff-Com: -0.347D-01 0.548D+00 0.487D+00
 Coeff-En:   0.000D+00 0.522D+00 0.478D+00
 Coeff:     -0.626D-02 0.527D+00 0.479D+00
 Gap=     0.275 Goal=   None    Shift=    0.000
 RMSDP=4.38D-04 MaxDP=3.25D-02 DE= 1.18D-04 OVMax= 7.25D-03

 Cycle   4  Pass 1  IDiag  1:
 RMSU=  2.59D-04    CP:  9.75D-01  1.03D+00  5.30D-01
 E= -686.657601794763     Delta-E=       -0.001488476727 Rises=F Damp=F
 DIIS: error= 3.53D-04 at cycle   4 NSaved=   4.
 NSaved= 4 IEnMin= 4 EnMin= -686.657601794763     IErMin= 4 ErrMin= 3.53D-04
 ErrMax= 3.53D-04  0.00D+00 EMaxC= 1.00D-01 BMatC= 8.50D-05 BMatP= 1.76D-03
 IDIUse=3 WtCom= 9.96D-01 WtEn= 3.53D-03
 Coeff-Com: -0.125D-01 0.115D+00 0.211D+00 0.687D+00
 Coeff-En:   0.000D+00 0.000D+00 0.000D+00 0.100D+01
 Coeff:     -0.124D-01 0.114D+00 0.210D+00 0.688D+00
 Gap=     0.274 Goal=   None    Shift=    0.000
 RMSDP=8.41D-05 MaxDP=8.51D-03 DE=-1.49D-03 OVMax= 1.55D-03

 Cycle   5  Pass 1  IDiag  1:
 RMSU=  5.73D-05    CP:  9.73D-01  1.03D+00  5.66D-01  8.57D-01
 E= -686.657660149026     Delta-E=       -0.000058354263 Rises=F Damp=F
 DIIS: error= 7.28D-05 at cycle   5 NSaved=   5.
 NSaved= 5 IEnMin= 5 EnMin= -686.657660149026     IErMin= 5 ErrMin= 7.28D-05
 ErrMax= 7.28D-05  0.00D+00 EMaxC= 1.00D-01 BMatC= 4.68D-06 BMatP= 8.50D-05
 IDIUse=1 WtCom= 1.00D+00 WtEn= 0.00D+00
 Coeff-Com: -0.316D-02 0.163D-01 0.636D-01 0.301D+00 0.623D+00
 Coeff:     -0.316D-02 0.163D-01 0.636D-01 0.301D+00 0.623D+00
 Gap=     0.274 Goal=   None    Shift=    0.000
 RMSDP=2.86D-05 MaxDP=4.18D-03 DE=-5.84D-05 OVMax= 3.95D-04

 Cycle   6  Pass 1  IDiag  1:
 RMSU=  2.33D-05    CP:  9.73D-01  1.03D+00  5.82D-01  8.48D-01  8.45D-01
 E= -686.657663712749     Delta-E=       -0.000003563723 Rises=F Damp=F
 DIIS: error= 2.83D-05 at cycle   6 NSaved=   6.
 NSaved= 6 IEnMin= 6 EnMin= -686.657663712749     IErMin= 6 ErrMin= 2.83D-05
 ErrMax= 2.83D-05  0.00D+00 EMaxC= 1.00D-01 BMatC= 8.13D-07 BMatP= 4.68D-06
 IDIUse=1 WtCom= 1.00D+00 WtEn= 0.00D+00
 Coeff-Com:  0.158D-03-0.959D-02 0.207D-02 0.596D-01 0.329D+00 0.619D+00
 Coeff:      0.158D-03-0.959D-02 0.207D-02 0.596D-01 0.329D+00 0.619D+00
 Gap=     0.274 Goal=   None    Shift=    0.000
 RMSDP=8.40D-06 MaxDP=9.15D-04 DE=-3.56D-06 OVMax= 1.56D-04

 Cycle   7  Pass 1  IDiag  1:
 RMSU=  3.79D-06    CP:  9.73D-01  1.03D+00  5.82D-01  8.66D-01  8.93D-01
                    CP:  7.89D-01
 E= -686.657664297823     Delta-E=       -0.000000585074 Rises=F Damp=F
 DIIS: error= 8.84D-06 at cycle   7 NSaved=   7.
 NSaved= 7 IEnMin= 7 EnMin= -686.657664297823     IErMin= 7 ErrMin= 8.84D-06
 ErrMax= 8.84D-06  0.00D+00 EMaxC= 1.00D-01 BMatC= 8.00D-08 BMatP= 8.13D-07
 IDIUse=1 WtCom= 1.00D+00 WtEn= 0.00D+00
 Coeff-Com:  0.324D-03-0.704D-02-0.402D-02 0.119D-01 0.141D+00 0.341D+00
 Coeff-Com:  0.517D+00
 Coeff:      0.324D-03-0.704D-02-0.402D-02 0.119D-01 0.141D+00 0.341D+00
 Coeff:      0.517D+00
 Gap=     0.274 Goal=   None    Shift=    0.000
 RMSDP=1.84D-06 MaxDP=1.51D-04 DE=-5.85D-07 OVMax= 3.82D-05

 Cycle   8  Pass 1  IDiag  1:
 RMSU=  1.39D-06    CP:  9.73D-01  1.03D+00  5.82D-01  8.69D-01  8.99D-01
                    CP:  7.69D-01  8.47D-01
 E= -686.657664355105     Delta-E=       -0.000000057281 Rises=F Damp=F
 DIIS: error= 1.32D-06 at cycle   8 NSaved=   8.
 NSaved= 8 IEnMin= 8 EnMin= -686.657664355105     IErMin= 8 ErrMin= 1.32D-06
 ErrMax= 1.32D-06  0.00D+00 EMaxC= 1.00D-01 BMatC= 2.23D-09 BMatP= 8.00D-08
 IDIUse=1 WtCom= 1.00D+00 WtEn= 0.00D+00
 Coeff-Com:  0.106D-03-0.182D-02-0.188D-02-0.677D-03 0.212D-01 0.637D-01
 Coeff-Com:  0.177D+00 0.743D+00
 Coeff:      0.106D-03-0.182D-02-0.188D-02-0.677D-03 0.212D-01 0.637D-01
 Coeff:      0.177D+00 0.743D+00
 Gap=     0.274 Goal=   None    Shift=    0.000
 RMSDP=8.37D-07 MaxDP=1.15D-04 DE=-5.73D-08 OVMax= 1.07D-05

 Cycle   9  Pass 1  IDiag  1:
 RMSU=  4.85D-07    CP:  9.73D-01  1.03D+00  5.82D-01  8.70D-01  9.04D-01
                    CP:  7.87D-01  8.81D-01  8.72D-01
 E= -686.657664356919     Delta-E=       -0.000000001815 Rises=F Damp=F
 DIIS: error= 4.22D-07 at cycle   9 NSaved=   9.
 NSaved= 9 IEnMin= 9 EnMin= -686.657664356919     IErMin= 9 ErrMin= 4.22D-07
 ErrMax= 4.22D-07  0.00D+00 EMaxC= 1.00D-01 BMatC= 1.98D-10 BMatP= 2.23D-09
 IDIUse=1 WtCom= 1.00D+00 WtEn= 0.00D+00
 Coeff-Com:  0.196D-04-0.213D-03-0.434D-03-0.841D-03-0.158D-02 0.898D-04
 Coeff-Com:  0.295D-01 0.280D+00 0.693D+00
 Coeff:      0.196D-04-0.213D-03-0.434D-03-0.841D-03-0.158D-02 0.898D-04
 Coeff:      0.295D-01 0.280D+00 0.693D+00
 Gap=     0.274 Goal=   None    Shift=    0.000
 RMSDP=1.81D-07 MaxDP=1.25D-05 DE=-1.81D-09 OVMax= 3.08D-06

 Cycle  10  Pass 1  IDiag  1:
 RMSU=  1.22D-07    CP:  9.73D-01  1.03D+00  5.82D-01  8.70D-01  9.04D-01
                    CP:  7.90D-01  8.94D-01  8.99D-01  1.01D+00
 E= -686.657664357063     Delta-E=       -0.000000000144 Rises=F Damp=F
 DIIS: error= 2.06D-07 at cycle  10 NSaved=  10.
 NSaved=10 IEnMin=10 EnMin= -686.657664357063     IErMin=10 ErrMin= 2.06D-07
 ErrMax= 2.06D-07  0.00D+00 EMaxC= 1.00D-01 BMatC= 4.34D-11 BMatP= 1.98D-10
 IDIUse=1 WtCom= 1.00D+00 WtEn= 0.00D+00
 Coeff-Com:  0.715D-06 0.544D-04-0.427D-04-0.323D-03-0.261D-02-0.568D-02
 Coeff-Com: -0.105D-02 0.762D-01 0.370D+00 0.563D+00
 Coeff:      0.715D-06 0.544D-04-0.427D-04-0.323D-03-0.261D-02-0.568D-02
 Coeff:     -0.105D-02 0.762D-01 0.370D+00 0.563D+00
 Gap=     0.274 Goal=   None    Shift=    0.000
 RMSDP=6.04D-08 MaxDP=6.56D-06 DE=-1.44D-10 OVMax= 8.74D-07

 Cycle  11  Pass 1  IDiag  1:
 RMSU=  4.58D-08    CP:  9.73D-01  1.03D+00  5.82D-01  8.70D-01  9.05D-01
                    CP:  7.90D-01  8.98D-01  9.08D-01  1.02D+00  9.64D-01
 E= -686.657664357097     Delta-E=       -0.000000000034 Rises=F Damp=F
 DIIS: error= 3.85D-08 at cycle  11 NSaved=  11.
 NSaved=11 IEnMin=11 EnMin= -686.657664357097     IErMin=11 ErrMin= 3.85D-08
 ErrMax= 3.85D-08  0.00D+00 EMaxC= 1.00D-01 BMatC= 1.81D-12 BMatP= 4.34D-11
 IDIUse=1 WtCom= 1.00D+00 WtEn= 0.00D+00
 Coeff-Com: -0.831D-06 0.359D-04 0.104D-04-0.931D-04-0.102D-02-0.239D-02
 Coeff-Com: -0.234D-02 0.145D-01 0.112D+00 0.236D+00 0.643D+00
 Coeff:     -0.831D-06 0.359D-04 0.104D-04-0.931D-04-0.102D-02-0.239D-02
 Coeff:     -0.234D-02 0.145D-01 0.112D+00 0.236D+00 0.643D+00
 Gap=     0.274 Goal=   None    Shift=    0.000
 RMSDP=1.82D-08 MaxDP=1.76D-06 DE=-3.39D-11 OVMax= 2.25D-07

 Cycle  12  Pass 1  IDiag  1:
 RMSU=  9.63D-09    CP:  9.73D-01  1.03D+00  5.82D-01  8.70D-01  9.05D-01
                    CP:  7.90D-01  8.99D-01  9.08D-01  1.03D+00  9.81D-01
                    CP:  1.01D+00
 E= -686.657664357109     Delta-E=       -0.000000000012 Rises=F Damp=F
 DIIS: error= 1.82D-08 at cycle  12 NSaved=  12.
 NSaved=12 IEnMin=12 EnMin= -686.657664357109     IErMin=12 ErrMin= 1.82D-08
 ErrMax= 1.82D-08  0.00D+00 EMaxC= 1.00D-01 BMatC= 2.62D-13 BMatP= 1.81D-12
 IDIUse=1 WtCom= 1.00D+00 WtEn= 0.00D+00
 Coeff-Com: -0.401D-06 0.989D-05 0.876D-05-0.129D-04-0.187D-03-0.458D-03
 Coeff-Com: -0.101D-02-0.183D-02 0.103D-01 0.463D-01 0.315D+00 0.632D+00
 Coeff:     -0.401D-06 0.989D-05 0.876D-05-0.129D-04-0.187D-03-0.458D-03
 Coeff:     -0.101D-02-0.183D-02 0.103D-01 0.463D-01 0.315D+00 0.632D+00
 Gap=     0.274 Goal=   None    Shift=    0.000
 RMSDP=7.12D-09 MaxDP=9.61D-07 DE=-1.21D-11 OVMax= 7.33D-08

 SCF Done:  E(RPBE1PBE) =  -686.657664357     A.U. after   12 cycles
            NFock= 12  Conv=0.71D-08     -V/T= 2.0032
 KE= 6.844579274629D+02 PE=-3.268385025414D+03 EE= 1.069656816683D+03
 Leave Link  502 at Fri Nov  1 11:01:42 2024, MaxMem=  4294967296 cpu:             485.7 elap:              17.4
 (Enter /home/matma/Software/gaussian16.B01_files/AVX2/tar//g16/l701.exe)
 ... and contract with generalized density number  0.
 Compute integral first derivatives.
 R6Disp: Adding Grimme-D3 dispersion energy 1st derivatives to the gradient.
 Leave Link  701 at Fri Nov  1 11:01:42 2024, MaxMem=  4294967296 cpu:               4.5 elap:               0.2
 (Enter /home/matma/Software/gaussian16.B01_files/AVX2/tar//g16/l702.exe)
 L702 exits ... SP integral derivatives will be done elsewhere.
 Leave Link  702 at Fri Nov  1 11:01:42 2024, MaxMem=  4294967296 cpu:               0.4 elap:               0.0
 (Enter /home/matma/Software/gaussian16.B01_files/AVX2/tar//g16/l703.exe)
 Integral derivatives from FoFJK, PRISM(SPDF).
 Compute integral first derivatives, UseDBF=F ICtDFT=           0.
 Calling FoFJK, ICntrl=      2127 FMM=F ISym2X=0 I1Cent= 0 IOpClX= 0 NMat=1 NMatS=1 NMatT=0.
 FoFJK:  IHMeth= 1 ICntrl=    2127 DoSepK=F KAlg= 0 I1Cent=           0 FoldK=F
 IRaf=         0 NMat=       1 IRICut=       1 DoRegI=T DoRafI=F ISym2E= 0 IDoP0=0 IntGTp=1.
 FoFCou: FMM=F IPFlag=           0 FMFlag=      100000 FMFlg1=         800
         NFxFlg=           0 DoJE=F BraDBF=F KetDBF=F FulRan=T
         wScrn=  0.000000 ICntrl=      2127 IOpCl=  0 I1Cent=           0 NGrid=           0
         NMat0=    1 NMatS0=      1 NMatT0=    0 NMatD0=    1 NMtDS0=    0 NMtDT0=    0
 Symmetry not used in FoFCou.
 Leave Link  703 at Fri Nov  1 11:01:47 2024, MaxMem=  4294967296 cpu:             124.6 elap:               4.5
 (Enter /home/matma/Software/gaussian16.B01_files/AVX2/tar//g16/l716.exe)
 Dipole        = 8.88246012D-02 9.29039541D-01 2.45975223D-01
 ***** Axes restored to original set *****
 -------------------------------------------------------------------
 Center     Atomic                   Forces (Hartrees/Bohr)
 Number     Number              X              Y              Z
 -------------------------------------------------------------------
      1        8           0.002579759    0.000584516   -0.000853895
      2        8          -0.000266138    0.000080111   -0.000087965
      3        8           0.001645479    0.000536005    0.001730605
      4        8          -0.000823349    0.002536228   -0.006888832
      5        8           0.000311876    0.001415049   -0.000270528
      6        8          -0.000043957    0.000142331   -0.000103197
      7        6           0.000738308   -0.000044304    0.001427575
      8        6          -0.004061683    0.001634100   -0.006322226
      9        6          -0.000412280   -0.001166681   -0.000399880
     10        6           0.000472209   -0.000696646    0.004464801
     11        6           0.001109750   -0.001588877    0.002103260
     12        6           0.000111218    0.000180919    0.000118719
     13        1          -0.000408571   -0.000044722    0.000136112
     14        1           0.001235746    0.000217530    0.001825281
     15        1           0.000011953    0.000024616    0.000089144
     16        1          -0.003340676   -0.001066010    0.002306549
     17        1          -0.000172632   -0.000357169   -0.000550209
     18        1          -0.000002198   -0.000058934    0.000000684
     19        1           0.000083802   -0.000010207   -0.000001299
     20        1           0.000320956   -0.000062308   -0.000113978
     21        1           0.000504157   -0.000086371   -0.000561357
     22        1           0.000391587   -0.001950047    0.001796666
     23        1           0.000143266   -0.000227712    0.000114369
     24        1          -0.000128579    0.000008583    0.000039598
 -------------------------------------------------------------------
 Cartesian Forces:  Max     0.006888832 RMS     0.001641656
 Leave Link  716 at Fri Nov  1 11:01:47 2024, MaxMem=  4294967296 cpu:               0.4 elap:               0.0
 (Enter /home/matma/Software/gaussian16.B01_files/AVX2/tar//g16/l103.exe)

 GradGradGradGradGradGradGradGradGradGradGradGradGradGradGradGradGradGrad
 Berny optimization.
 Using GEDIIS/GDIIS optimizer.
 FormGI is forming the generalized inverse of G from B-inverse, IUseBI=4.
 Internal  Forces:  Max     0.002924833 RMS     0.000830212
 Search for a local minimum.
 Step number   5 out of a maximum of  142
 All quantities printed in internal units (Hartrees-Bohrs-Radians)
 RMS Force = .83021D-03 SwitMx=.10000D-02 MixMth= 2
 Mixed Optimization -- En-DIIS/RFO-DIIS
 Swapping is turned off.
 Update second derivatives using D2CorX and points    4    5
 DE= -1.35D-03 DEPred=-1.43D-04 R= 9.47D+00
 TightC=F SS=  1.41D+00  RLast= 9.92D-01 DXNew= 1.4270D+00 2.9770D+00
 Trust test= 9.47D+00 RLast= 9.92D-01 DXMaxT set to 1.43D+00
 ITU=  1  0  1  1  0
     Eigenvalues ---   -0.00279  -0.00039   0.00096   0.00311   0.00344
     Eigenvalues ---    0.00445   0.00614   0.00773   0.00817   0.02340
     Eigenvalues ---    0.02382   0.03532   0.04028   0.04479   0.04645
     Eigenvalues ---    0.04995   0.05269   0.05626   0.05787   0.05884
     Eigenvalues ---    0.06193   0.06258   0.06555   0.06842   0.07046
     Eigenvalues ---    0.08483   0.09259   0.09618   0.10564   0.12190
     Eigenvalues ---    0.13778   0.14719   0.15369   0.15841   0.16238
     Eigenvalues ---    0.17063   0.17137   0.17785   0.19498   0.19837
     Eigenvalues ---    0.20552   0.23676   0.23946   0.24439   0.26028
     Eigenvalues ---    0.27861   0.28673   0.29822   0.31175   0.31539
     Eigenvalues ---    0.32638   0.33051   0.33159   0.33333   0.33837
     Eigenvalues ---    0.34313   0.35258   0.36499   0.37224   0.39077
     Eigenvalues ---    0.39763   0.49604   0.49724   0.49834   0.49904
     Eigenvalues ---    0.50215
 Eigenvalue     1 is  -2.79D-03 should be greater than     0.000000 Eigenvector:
                          D13       D15       D14       D42       D45
   1                    0.58612   0.56134   0.55500   0.06573   0.06340
                          A27       D48       D41       D44       D66
   1                   -0.04932   0.04798   0.04676   0.04443  -0.04411
 Eigenvalue     2 is  -3.85D-04 should be greater than     0.000000 Eigenvector:
                          D66       D65       D45       D64       D42
   1                    0.29791   0.25495  -0.25173   0.25022  -0.24450
                          D63       D60       D48       D62       D61
   1                    0.23242   0.22567  -0.22068   0.18946   0.18473
 Use linear search instead of GDIIS.
 RFO step:  Lambda=-5.28307079D-03 EMin=-2.79007076D-03
 Skip linear search -- no minimum in search direction.
 Iteration  1 RMS(Cart)=  0.09363319 RMS(Int)=  0.04889259
 Iteration  2 RMS(Cart)=  0.02917242 RMS(Int)=  0.01862487
 Iteration  3 RMS(Cart)=  0.01725828 RMS(Int)=  0.00132790
 Iteration  4 RMS(Cart)=  0.00108275 RMS(Int)=  0.00073882
 Iteration  5 RMS(Cart)=  0.00000267 RMS(Int)=  0.00073882
 Iteration  6 RMS(Cart)=  0.00000000 RMS(Int)=  0.00073882
 ITry= 1 IFail=0 DXMaxC= 9.82D-01 DCOld= 1.00D+10 DXMaxT= 1.43D+00 DXLimC= 3.00D+00 Rises=F
 Variable       Old X    -DE/DX   Delta X   Delta X   Delta X     New X
                                 (Linear)    (Quad)   (Total)
    R1        2.67110   0.00142   0.00000   0.01738   0.01826   2.68937
    R2        2.69384  -0.00188   0.00000  -0.01144  -0.01175   2.68209
    R3        2.67713   0.00003   0.00000  -0.00456  -0.00456   2.67258
    R4        1.81860   0.00004   0.00000  -0.00117  -0.00117   1.81743
    R5        2.65167   0.00135   0.00000   0.03245   0.03245   2.68412
    R6        1.82034  -0.00012   0.00000  -0.00444  -0.00444   1.81590
    R7        2.65110   0.00124   0.00000   0.02569   0.02569   2.67679
    R8        1.81224   0.00076   0.00000  -0.00150  -0.00150   1.81074
    R9        2.59184   0.00116   0.00000   0.00489   0.00489   2.59673
   R10        1.81719   0.00015   0.00000   0.00055   0.00055   1.81774
   R11        2.65512   0.00023   0.00000   0.00015   0.00015   2.65528
   R12        1.81849  -0.00005   0.00000  -0.00038  -0.00038   1.81811
   R13        2.87878  -0.00039   0.00000  -0.00988  -0.00963   2.86915
   R14        2.87863  -0.00015   0.00000   0.01518   0.01550   2.89413
   R15        2.07003   0.00013   0.00000   0.00064   0.00064   2.07067
   R16        2.86770  -0.00169   0.00000  -0.01076  -0.01170   2.85600
   R17        2.10311  -0.00187   0.00000  -0.02085  -0.02085   2.08225
   R18        2.86284  -0.00001   0.00000  -0.00285  -0.00285   2.85999
   R19        2.09130  -0.00009   0.00000  -0.00216  -0.00216   2.08915
   R20        2.90574  -0.00292   0.00000  -0.02935  -0.02953   2.87621
   R21        2.07715   0.00226   0.00000   0.02154   0.02154   2.09869
   R22        2.07586   0.00055   0.00000   0.00249   0.00249   2.07835
   R23        2.07954   0.00000   0.00000  -0.00008  -0.00008   2.07946
   R24        2.06346  -0.00003   0.00000   0.00081   0.00081   2.06427
    A1        1.99288   0.00030   0.00000  -0.00224  -0.00448   1.98840
    A2        1.89830  -0.00006   0.00000   0.00563   0.00563   1.90393
    A3        1.86641   0.00046   0.00000   0.03403   0.03403   1.90043
    A4        1.91246  -0.00155   0.00000  -0.02500  -0.02500   1.88746
    A5        1.90306  -0.00035   0.00000  -0.00334  -0.00334   1.89973
    A6        1.86574   0.00015   0.00000   0.00274   0.00274   1.86848
    A7        1.92287   0.00015   0.00000   0.02133   0.02129   1.94416
    A8        1.97602   0.00062   0.00000   0.00457   0.00568   1.98170
    A9        1.84142  -0.00016   0.00000   0.00566   0.00530   1.84672
   A10        1.91835  -0.00100   0.00000  -0.03491  -0.03566   1.88269
   A11        1.89291   0.00056   0.00000   0.01358   0.01345   1.90637
   A12        1.90924  -0.00013   0.00000  -0.00799  -0.00835   1.90089
   A13        1.95166   0.00125   0.00000   0.03343   0.03274   1.98441
   A14        1.92117  -0.00177   0.00000  -0.05646  -0.05491   1.86626
   A15        1.91354   0.00004   0.00000  -0.01736  -0.01959   1.89395
   A16        1.93394  -0.00013   0.00000  -0.01388  -0.01588   1.91806
   A17        1.86103   0.00072   0.00000   0.05509   0.05562   1.91665
   A18        1.88016  -0.00006   0.00000   0.00151   0.00105   1.88122
   A19        1.91643  -0.00025   0.00000   0.00787   0.00711   1.92354
   A20        1.85462   0.00013   0.00000  -0.00048  -0.00031   1.85431
   A21        1.90895  -0.00001   0.00000  -0.00683  -0.00654   1.90241
   A22        1.98240   0.00007   0.00000   0.00007   0.00057   1.98297
   A23        1.90675   0.00010   0.00000  -0.00417  -0.00419   1.90256
   A24        1.89319  -0.00005   0.00000   0.00326   0.00309   1.89628
   A25        1.98542  -0.00170   0.00000  -0.02765  -0.02684   1.95858
   A26        1.94485  -0.00136   0.00000  -0.00837  -0.00898   1.93587
   A27        1.86283   0.00270   0.00000   0.12364   0.12379   1.98662
   A28        1.90256   0.00123   0.00000  -0.03361  -0.03806   1.86450
   A29        1.89443  -0.00029   0.00000  -0.01543  -0.01689   1.87754
   A30        1.86924  -0.00050   0.00000  -0.03663  -0.03688   1.83236
   A31        1.88857   0.00061   0.00000   0.01376   0.01533   1.90390
   A32        1.89101  -0.00052   0.00000  -0.04645  -0.04794   1.84308
   A33        1.91785  -0.00017   0.00000  -0.00801  -0.00847   1.90938
   A34        1.97832   0.00036   0.00000   0.02621   0.02675   2.00507
   A35        1.85692  -0.00006   0.00000   0.00705   0.00656   1.86348
   A36        1.93041  -0.00020   0.00000   0.00808   0.00752   1.93793
   A37        1.94252   0.00021   0.00000   0.00431   0.00431   1.94683
   A38        1.94727  -0.00004   0.00000   0.00356   0.00354   1.95081
   A39        1.87658  -0.00002   0.00000   0.00067   0.00068   1.87726
   A40        1.89209  -0.00000   0.00000   0.00176   0.00174   1.89383
   A41        1.91833  -0.00017   0.00000  -0.00744  -0.00744   1.91089
   A42        1.88629   0.00001   0.00000  -0.00333  -0.00333   1.88295
    D1        1.08248   0.00019   0.00000  -0.00963  -0.01019   1.07229
    D2       -3.04995   0.00021   0.00000  -0.00524  -0.00551  -3.05546
    D3       -1.00966   0.00022   0.00000  -0.00513  -0.00535  -1.01501
    D4        3.02510  -0.00003   0.00000  -0.06366  -0.06365   2.96145
    D5       -1.10654   0.00047   0.00000  -0.05169  -0.05139  -1.15792
    D6        1.00435  -0.00020   0.00000  -0.07546  -0.07545   0.92890
    D7       -1.28330   0.00066   0.00000   0.04029   0.04050  -1.24280
    D8        0.87278  -0.00008   0.00000   0.01412   0.01403   0.88681
    D9        2.96017   0.00001   0.00000   0.01059   0.01047   2.97065
   D10        0.71156   0.00116   0.00000   0.14245   0.14324   0.85479
   D11        2.86917   0.00059   0.00000   0.10729   0.10573   2.97490
   D12       -1.34874  -0.00053   0.00000   0.06458   0.06536  -1.28338
   D13       -0.03978  -0.00178   0.00000  -0.56008  -0.56122  -0.60099
   D14       -2.19902  -0.00104   0.00000  -0.48746  -0.48589  -2.68492
   D15        2.04900  -0.00132   0.00000  -0.51198  -0.51241   1.53659
   D16        1.25375   0.00006   0.00000   0.05520   0.05497   1.30871
   D17       -0.84401   0.00007   0.00000   0.08761   0.08792  -0.75610
   D18       -2.96935   0.00014   0.00000   0.05656   0.05649  -2.91287
   D19       -0.93033  -0.00013   0.00000   0.01475   0.01474  -0.91558
   D20        1.18567  -0.00001   0.00000   0.02250   0.02251   1.20818
   D21       -3.03212  -0.00003   0.00000   0.02089   0.02089  -3.01123
   D22       -1.01254  -0.00106   0.00000  -0.01300  -0.01398  -1.02651
   D23        3.12024   0.00042   0.00000   0.04618   0.04544  -3.11751
   D24        1.07886   0.00015   0.00000   0.01985   0.02024   1.09910
   D25        3.08138  -0.00126   0.00000  -0.00916  -0.01062   3.07077
   D26        0.93098   0.00023   0.00000   0.05002   0.04879   0.97977
   D27       -1.11040  -0.00005   0.00000   0.02369   0.02360  -1.08680
   D28        0.99485  -0.00085   0.00000   0.01289   0.01228   1.00713
   D29       -1.15555   0.00064   0.00000   0.07207   0.07169  -1.08386
   D30        3.08625   0.00036   0.00000   0.04574   0.04650   3.13275
   D31       -3.11421   0.00020   0.00000   0.02292   0.02282  -3.09139
   D32        1.09530   0.00016   0.00000   0.01800   0.01786   1.11317
   D33       -1.02072   0.00010   0.00000   0.01679   0.01655  -1.00418
   D34       -0.95565   0.00009   0.00000   0.02763   0.02767  -0.92799
   D35       -3.02933   0.00005   0.00000   0.02272   0.02271  -3.00662
   D36        1.13783  -0.00000   0.00000   0.02150   0.02139   1.15922
   D37        1.12089   0.00010   0.00000   0.01832   0.01827   1.13916
   D38       -0.95278   0.00006   0.00000   0.01340   0.01331  -0.93948
   D39       -3.06881   0.00000   0.00000   0.01219   0.01199  -3.05682
   D40        0.97425   0.00086   0.00000  -0.07388  -0.07448   0.89977
   D41       -3.12691  -0.00121   0.00000  -0.13121  -0.13128   3.02499
   D42       -1.09653  -0.00129   0.00000  -0.20158  -0.20194  -1.29848
   D43       -3.14104   0.00111   0.00000  -0.08082  -0.08087   3.06128
   D44       -0.95901  -0.00096   0.00000  -0.13815  -0.13767  -1.09668
   D45        1.07137  -0.00104   0.00000  -0.20853  -0.20833   0.86304
   D46       -1.11145   0.00187   0.00000  -0.02138  -0.02213  -1.13359
   D47        1.07057  -0.00020   0.00000  -0.07871  -0.07894   0.99163
   D48        3.10095  -0.00028   0.00000  -0.14908  -0.14960   2.95135
   D49        1.07713   0.00010   0.00000   0.01107   0.01136   1.08849
   D50       -1.07080   0.00002   0.00000   0.00259   0.00288  -1.06793
   D51       -3.12905   0.00010   0.00000   0.00981   0.01009  -3.11896
   D52       -3.09727  -0.00007   0.00000   0.02059   0.02036  -3.07691
   D53        1.03798  -0.00016   0.00000   0.01211   0.01188   1.04986
   D54       -1.02026  -0.00008   0.00000   0.01933   0.01909  -1.00117
   D55       -0.97367   0.00007   0.00000   0.01766   0.01761  -0.95606
   D56       -3.12161  -0.00002   0.00000   0.00918   0.00913  -3.11248
   D57        1.10334   0.00006   0.00000   0.01640   0.01634   1.11968
   D58       -3.06783  -0.00196   0.00000   0.05422   0.05362  -3.01421
   D59       -0.97146  -0.00132   0.00000   0.05606   0.05594  -0.91552
   D60        1.11226  -0.00130   0.00000   0.08850   0.08884   1.20110
   D61        1.00983   0.00030   0.00000   0.12083   0.11966   1.12949
   D62        3.10620   0.00093   0.00000   0.12268   0.12198  -3.05500
   D63       -1.09327   0.00096   0.00000   0.15511   0.15488  -0.93838
   D64       -1.03659   0.00026   0.00000   0.17663   0.17552  -0.86107
   D65        1.05978   0.00090   0.00000   0.17848   0.17784   1.23763
   D66       -3.13968   0.00092   0.00000   0.21091   0.21074  -2.92894
         Item               Value     Threshold  Converged?
 Maximum Force            0.002925     0.000450     NO 
 RMS     Force            0.000830     0.000300     NO 
 Maximum Displacement     0.981685     0.001800     NO 
 RMS     Displacement     0.124664     0.001200     NO 
 Predicted change in Energy=-5.612578D-03
 Lowest energy point so far.  Saving SCF results.
 GradGradGradGradGradGradGradGradGradGradGradGradGradGradGradGradGradGrad

 Leave Link  103 at Fri Nov  1 11:01:47 2024, MaxMem=  4294967296 cpu:               0.7 elap:               0.1
 (Enter /home/matma/Software/gaussian16.B01_files/AVX2/tar//g16/l202.exe)
                          Input orientation:                          
 ---------------------------------------------------------------------
 Center     Atomic      Atomic             Coordinates (Angstroms)
 Number     Number       Type             X           Y           Z
 ---------------------------------------------------------------------
      1          8           0       -0.640783    1.150807    0.233503
      2          8           0       -0.846512   -2.494039   -0.309062
      3          8           0        1.996393   -1.973743   -0.017047
      4          8           0        2.894941    0.587652   -0.207540
      5          8           0        1.001636    2.702290   -0.037442
      6          8           0       -3.417345    0.955677   -0.019524
      7          6           0       -0.350630   -1.254816    0.158465
      8          6           0        1.045044   -0.980844   -0.372796
      9          6           0       -1.237056   -0.062150   -0.212091
     10          6           0        1.554711    0.332834    0.173658
     11          6           0        0.625082    1.418252   -0.349998
     12          6           0       -2.613826   -0.112219    0.414408
     13          1           0       -0.310565   -1.341973    1.250011
     14          1           0        1.017428   -0.900367   -1.471388
     15          1           0       -1.349956   -0.025174   -1.311219
     16          1           0        1.394933    0.323477    1.272645
     17          1           0        0.539840    1.370315   -1.445458
     18          1           0       -2.499562   -0.118599    1.508842
     19          1           0       -3.112901   -1.039440    0.123803
     20          1           0       -1.046388   -2.419184   -1.246822
     21          1           0        1.631707   -2.839922   -0.217382
     22          1           0        3.360203   -0.249382   -0.240037
     23          1           0        1.283846    2.728304    0.881766
     24          1           0       -2.918439    1.764143    0.132503
 ---------------------------------------------------------------------
                    Distance matrix (angstroms):
                    1          2          3          4          5
     1  O    0.000000
     2  O    3.690745   0.000000
     3  O    4.096374   2.904839   0.000000
     4  O    3.607354   4.848257   2.721106   0.000000
     5  O    2.275533   5.521889   4.780715   2.843454   0.000000
     6  O    2.794887   4.312024   6.155490   6.325800   4.751670
     7  C    2.424219   1.414268   2.460930   3.749983   4.186369
     8  C    2.784519   2.423181   1.420376   2.430968   3.698624
     9  C    1.423152   2.464956   3.761306   4.182782   3.561513
    10  C    2.343683   3.740334   2.356215   1.416496   2.442289
    11  C    1.419301   4.180106   3.673823   2.421250   1.374131
    12  C    2.349651   3.052846   4.990545   5.587768   4.604041
    13  H    2.712247   2.011269   2.706774   4.015367   4.442462
    14  H    3.140642   2.713865   2.055630   2.708610   3.877575
    15  H    2.066888   2.711654   4.082873   4.428636   3.819889
    16  H    2.430725   3.932463   2.702273   2.123855   2.744040
    17  H    2.064211   4.259883   3.917222   2.773356   1.992466
    18  H    2.587072   3.417610   5.097402   5.704859   4.754660
    19  H    3.304631   2.727590   5.195925   6.233087   5.563808
    20  H    3.885964   0.961742   3.311991   5.065101   5.646813
    21  H    4.614480   2.503919   0.960935   3.652960   5.580813
    22  H    4.265285   4.768616   2.209778   0.958202   3.783682
    23  H    2.571564   5.764492   4.839921   2.892163   0.961905
    24  H    2.360953   4.756046   6.176547   5.940972   4.034351
                    6          7          8          9         10
     6  O    0.000000
     7  C    3.784534   0.000000
     8  C    4.877277   1.518290   0.000000
     9  C    2.413858   1.531507   2.465321   0.000000
    10  C    5.014637   2.480158   1.511332   2.845835   0.000000
    11  C    4.082205   2.890647   2.435683   2.382891   1.522024
    12  C    1.405113   2.548155   3.842074   1.513441   4.199135
    13  H    4.067308   1.095752   2.145132   2.152690   2.728144
    14  H    5.021954   2.157229   1.101882   2.714984   2.125002
    15  H    2.627668   2.161168   2.744079   1.105530   3.281786
    16  H    5.022687   2.603727   2.128650   3.046393   1.110580
    17  H    4.226645   3.202627   2.633208   2.594324   2.174366
    18  H    2.081417   2.780722   4.104663   2.135115   4.292276
    19  H    2.023295   2.770872   4.187905   2.141661   4.865410
    20  H    4.303183   1.953117   2.684554   2.581208   4.044389
    21  H    6.319703   2.565830   1.955632   3.993225   3.197690
    22  H    6.887376   3.865227   2.431588   4.601155   1.941629
    23  H    5.104481   4.365767   3.922848   3.916390   2.512581
    24  H    0.962100   3.963386   4.847626   2.506220   4.696744
                   11         12         13         14         15
    11  C    0.000000
    12  C    3.662947   0.000000
    13  H    3.324802   2.741448   0.000000
    14  H    2.605273   4.166942   3.060162   0.000000
    15  H    2.628346   2.140732   3.061730   2.529056   0.000000
    16  H    2.103371   4.122687   2.383896   3.028204   3.785806
    17  H    1.099817   3.950015   3.917301   2.320509   2.353028
    18  H    3.947226   1.100401   2.520980   4.675698   3.046812
    19  H    4.498583   1.092367   3.035285   4.429852   2.489176
    20  H    4.280657   3.246326   2.817090   2.572270   2.414040
    21  H    4.377548   5.085673   2.858237   2.389925   4.243772
    22  H    3.205305   6.011334   4.109566   2.725546   4.835628
    23  H    1.915059   4.845498   4.386902   4.333078   4.396333
    24  H    3.592908   1.921717   4.206874   5.016287   2.783186
                   16         17         18         19         20
    16  H    0.000000
    17  H    3.035644   0.000000
    18  H    3.926615   4.492518   0.000000
    19  H    4.847468   4.648873   1.772700   0.000000
    20  H    4.453084   4.112893   3.872737   2.837742   0.000000
    21  H    3.504759   4.519562   5.239545   5.086202   2.899821
    22  H    2.545321   3.468560   6.116578   6.531282   5.013951
    23  H    2.438918   2.795291   4.776218   5.839674   6.038006
    24  H    4.688349   3.821617   2.369490   2.810333   4.786161
                   21         22         23         24
    21  H    0.000000
    22  H    3.114338   0.000000
    23  H    5.686323   3.799515   0.000000
    24  H    6.482566   6.604121   4.376094   0.000000
 Stoichiometry    C6H12O6
 Framework group  C1[X(C6H12O6)]
 Deg. of freedom    66
 Full point group                 C1      NOp   1
 RotChk:  IX=0 Diff= 1.96D-02
 Largest Abelian subgroup         C1      NOp   1
 Largest concise Abelian subgroup C1      NOp   1
                         Standard orientation:                         
 ---------------------------------------------------------------------
 Center     Atomic      Atomic             Coordinates (Angstroms)
 Number     Number       Type             X           Y           Z
 ---------------------------------------------------------------------
      1          8           0       -0.703173   -1.123238   -0.204992
      2          8           0       -0.722854    2.546681    0.186035
      3          8           0        2.078298    1.884036   -0.204531
      4          8           0        2.870216   -0.705905    0.059067
      5          8           0        0.879447   -2.736189    0.062876
      6          8           0       -3.454252   -0.789818    0.158031
      7          6           0       -0.303751    1.267468   -0.247694
      8          6           0        1.100822    0.951802    0.234730
      9          6           0       -1.224612    0.133476    0.212296
     10          6           0        1.526851   -0.405652   -0.275114
     11          6           0        0.574478   -1.424221    0.334852
     12          6           0       -2.624496    0.220827   -0.356209
     13          1           0       -0.308802    1.307056   -1.342720
     14          1           0        1.118908    0.918602    1.335963
     15          1           0       -1.289692    0.147649    1.315818
     16          1           0        1.318577   -0.434804   -1.365601
     17          1           0        0.540596   -1.326729    1.429816
     18          1           0       -2.559199    0.176250   -1.453766
     19          1           0       -3.068520    1.181406   -0.085293
     20          1           0       -0.883641    2.520329    1.133875
     21          1           0        1.761651    2.773724   -0.026807
     22          1           0        3.373062    0.109397    0.034971
     23          1           0        1.118772   -2.813535   -0.865565
     24          1           0       -2.998933   -1.626082    0.020249
 ---------------------------------------------------------------------
 Rotational constants (GHZ):           1.1807108           0.7933366           0.4945588
 Leave Link  202 at Fri Nov  1 11:01:47 2024, MaxMem=  4294967296 cpu:               0.1 elap:               0.0
 (Enter /home/matma/Software/gaussian16.B01_files/AVX2/tar//g16/l301.exe)
 Standard basis: 6-311+G(d,p) (5D, 7F)
 Ernie: Thresh=  0.10000D-02 Tol=  0.10000D-05 Strict=F.
 There are   348 symmetry adapted cartesian basis functions of A   symmetry.
 There are   336 symmetry adapted basis functions of A   symmetry.
   336 basis functions,   528 primitive gaussians,   348 cartesian basis functions
    48 alpha electrons       48 beta electrons
       nuclear repulsion energy       828.6087728635 Hartrees.
 IExCor= 1009 DFT=T Ex+Corr=PBE1PBE ExCW=0 ScaHFX=  0.250000
 ScaDFX=  0.750000  0.750000  1.000000  1.000000 ScalE2=  1.000000  1.000000
 IRadAn=  99590 IRanWt=     -1 IRanGd=            0 ICorTp=0 IEmpDi=131
 NAtoms=   24 NActive=   24 NUniq=   24 SFac= 1.00D+00 NAtFMM=   60 NAOKFM=F Big=F
 Integral buffers will be    131072 words long.
 Raffenetti 2 integral format.
 Two-electron integral symmetry is turned on.
 R6Disp:  Grimme-D3 Dispersion energy=       -0.0156547472 Hartrees.
 Nuclear repulsion after empirical dispersion term =      828.5931181163 Hartrees.
 Leave Link  301 at Fri Nov  1 11:01:47 2024, MaxMem=  4294967296 cpu:               0.8 elap:               0.0
 (Enter /home/matma/Software/gaussian16.B01_files/AVX2/tar//g16/l302.exe)
 NPDir=0 NMtPBC=     1 NCelOv=     1 NCel=       1 NClECP=     1 NCelD=      1
         NCelK=      1 NCelE2=     1 NClLst=     1 CellRange=     0.0.
 One-electron integrals computed using PRISM.
 One-electron integral symmetry used in STVInt
 NBasis=   336 RedAO= T EigKep=  7.41D-06  NBF=   336
 NBsUse=   336 1.00D-06 EigRej= -1.00D+00 NBFU=   336
 Precomputing XC quadrature grid using
 IXCGrd= 4 IRadAn=       99590 IRanWt=          -1 IRanGd=           0 AccXCQ= 0.00D+00.
 Generated NRdTot=       0 NPtTot=           0 NUsed=           0 NTot=          32
 NSgBfM=   348   348   348   348   348 MxSgAt=    24 MxSgA2=    24.
 Leave Link  302 at Fri Nov  1 11:01:47 2024, MaxMem=  4294967296 cpu:               5.3 elap:               0.2
 (Enter /home/matma/Software/gaussian16.B01_files/AVX2/tar//g16/l303.exe)
 DipDrv:  MaxL=1.
 Leave Link  303 at Fri Nov  1 11:01:47 2024, MaxMem=  4294967296 cpu:               0.8 elap:               0.0
 (Enter /home/matma/Software/gaussian16.B01_files/AVX2/tar//g16/l401.exe)
 Initial guess from the checkpoint file:  "input.chk"
 B after Tr=     0.000000    0.000000    0.000000
         Rot=    0.999994    0.001083   -0.000122    0.003152 Ang=   0.38 deg.
 Guess basis will be translated and rotated to current coordinates.
 JPrj=2 DoOrth=T DoCkMO=T.
 Generating alternative initial guess.
 ExpMin= 4.38D-02 ExpMax= 8.59D+03 ExpMxC= 1.30D+03 IAcc=4 IRadAn=    199590 AccDes= 0.00D+00
 Harris functional with IExCor= 1009 and IRadAn=  199590 diagonalized for initial guess.
 HarFok:  IExCor= 1009 AccDes= 0.00D+00 IRadAn=    199590 IDoV= 1 UseB2=F ITyADJ=14
 ICtDFT=  3500011 ScaDFX=  1.000000  1.000000  1.000000  1.000000
 FoFCou: FMM=F IPFlag=           0 FMFlag=      100000 FMFlg1=           0
         NFxFlg=           0 DoJE=T BraDBF=F KetDBF=T FulRan=T
         wScrn=  0.000000 ICntrl=       500 IOpCl=  0 I1Cent=   200000004 NGrid=           0
         NMat0=    1 NMatS0=      1 NMatT0=    0 NMatD0=    1 NMtDS0=    0 NMtDT0=    0
 Petite list used in FoFCou.
 Harris En= -686.788461636099    
 Leave Link  401 at Fri Nov  1 11:01:49 2024, MaxMem=  4294967296 cpu:              40.8 elap:               1.5
 (Enter /home/matma/Software/gaussian16.B01_files/AVX2/tar//g16/l502.exe)
 Integral symmetry usage will be decided dynamically.
 Closed shell SCF:
 Using DIIS extrapolation, IDIIS=  1040.
 NGot=  4294967296 LenX=  4294711890 LenY=  4294590345
 Requested convergence on RMS density matrix=1.00D-08 within 128 cycles.
 Requested convergence on MAX density matrix=1.00D-06.
 Requested convergence on             energy=1.00D-06.
 No special actions if energy rises.
 Fock matrices will be formed incrementally for  20 cycles.

 Cycle   1  Pass 1  IDiag  1:
 FoFJK:  IHMeth= 1 ICntrl=       0 DoSepK=F KAlg= 0 I1Cent=           0 FoldK=F
 IRaf= 920000000 NMat=       1 IRICut=       1 DoRegI=T DoRafI=F ISym2E= 0 IDoP0=0 IntGTp=1.
 FoFCou: FMM=F IPFlag=           0 FMFlag=      100000 FMFlg1=           0
         NFxFlg=           0 DoJE=F BraDBF=F KetDBF=F FulRan=T
         wScrn=  0.000000 ICntrl=         0 IOpCl=  0 I1Cent=           0 NGrid=           0
         NMat0=    1 NMatS0=      1 NMatT0=    0 NMatD0=    1 NMtDS0=    0 NMtDT0=    0
 Symmetry not used in FoFCou.
 E= -686.598486623842    
 DIIS: error= 7.54D-03 at cycle   1 NSaved=   1.
 NSaved= 1 IEnMin= 1 EnMin= -686.598486623842     IErMin= 1 ErrMin= 7.54D-03
 ErrMax= 7.54D-03  0.00D+00 EMaxC= 1.00D-01 BMatC= 4.62D-02 BMatP= 4.62D-02
 IDIUse=3 WtCom= 9.25D-01 WtEn= 7.54D-02
 Coeff-Com:  0.100D+01
 Coeff-En:   0.100D+01
 Coeff:      0.100D+01
 Gap=     0.615 Goal=   None    Shift=    0.000
 GapD=    0.615 DampG=2.000 DampE=1.000 DampFc=2.0000 IDamp=-1.
 RMSDP=5.15D-03 MaxDP=5.94D-01              OVMax= 8.04D-02

 Cycle   2  Pass 1  IDiag  1:
 RMSU=  4.84D-03    CP:  9.21D-01
 E= -686.655880088390     Delta-E=       -0.057393464548 Rises=F Damp=F
 DIIS: error= 3.15D-03 at cycle   2 NSaved=   2.
 NSaved= 2 IEnMin= 2 EnMin= -686.655880088390     IErMin= 2 ErrMin= 3.15D-03
 ErrMax= 3.15D-03  0.00D+00 EMaxC= 1.00D-01 BMatC= 3.40D-03 BMatP= 4.62D-02
 IDIUse=3 WtCom= 9.69D-01 WtEn= 3.15D-02
 Coeff-Com:  0.595D-01 0.941D+00
 Coeff-En:   0.000D+00 0.100D+01
 Coeff:      0.576D-01 0.942D+00
 Gap=     0.285 Goal=   None    Shift=    0.000
 RMSDP=1.05D-03 MaxDP=1.18D-01 DE=-5.74D-02 OVMax= 1.84D-02

 Cycle   3  Pass 1  IDiag  1:
 RMSU=  9.16D-04    CP:  9.03D-01  9.33D-01
 E= -686.654947993643     Delta-E=        0.000932094748 Rises=F Damp=F
 DIIS: error= 3.03D-03 at cycle   3 NSaved=   3.
 NSaved= 3 IEnMin= 2 EnMin= -686.655880088390     IErMin= 3 ErrMin= 3.03D-03
 ErrMax= 3.03D-03  0.00D+00 EMaxC= 1.00D-01 BMatC= 5.28D-03 BMatP= 3.40D-03
 IDIUse=3 WtCom= 1.54D-01 WtEn= 8.46D-01
 Coeff-Com: -0.364D-01 0.572D+00 0.465D+00
 Coeff-En:   0.000D+00 0.574D+00 0.426D+00
 Coeff:     -0.560D-02 0.573D+00 0.432D+00
 Gap=     0.279 Goal=   None    Shift=    0.000
 RMSDP=5.14D-04 MaxDP=4.44D-02 DE= 9.32D-04 OVMax= 1.28D-02

 Cycle   4  Pass 1  IDiag  1:
 RMSU=  1.94D-04    CP:  9.11D-01  9.78D-01  5.81D-01
 E= -686.658497326837     Delta-E=       -0.003549333195 Rises=F Damp=F
 DIIS: error= 2.07D-04 at cycle   4 NSaved=   4.
 NSaved= 4 IEnMin= 4 EnMin= -686.658497326837     IErMin= 4 ErrMin= 2.07D-04
 ErrMax= 2.07D-04  0.00D+00 EMaxC= 1.00D-01 BMatC= 3.23D-05 BMatP= 3.40D-03
 IDIUse=3 WtCom= 9.98D-01 WtEn= 2.07D-03
 Coeff-Com: -0.132D-01 0.127D+00 0.130D+00 0.755D+00
 Coeff-En:   0.000D+00 0.000D+00 0.000D+00 0.100D+01
 Coeff:     -0.132D-01 0.127D+00 0.130D+00 0.756D+00
 Gap=     0.278 Goal=   None    Shift=    0.000
 RMSDP=8.31D-05 MaxDP=5.31D-03 DE=-3.55D-03 OVMax= 1.58D-03

 Cycle   5  Pass 1  IDiag  1:
 RMSU=  6.59D-05    CP:  9.09D-01  9.80D-01  5.45D-01  8.94D-01
 E= -686.658520165166     Delta-E=       -0.000022838329 Rises=F Damp=F
 DIIS: error= 8.66D-05 at cycle   5 NSaved=   5.
 NSaved= 5 IEnMin= 5 EnMin= -686.658520165166     IErMin= 5 ErrMin= 8.66D-05
 ErrMax= 8.66D-05  0.00D+00 EMaxC= 1.00D-01 BMatC= 7.32D-06 BMatP= 3.23D-05
 IDIUse=1 WtCom= 1.00D+00 WtEn= 0.00D+00
 Coeff-Com: -0.337D-02 0.182D-01 0.290D-01 0.352D+00 0.604D+00
 Coeff:     -0.337D-02 0.182D-01 0.290D-01 0.352D+00 0.604D+00
 Gap=     0.278 Goal=   None    Shift=    0.000
 RMSDP=3.16D-05 MaxDP=4.04D-03 DE=-2.28D-05 OVMax= 4.43D-04

 Cycle   6  Pass 1  IDiag  1:
 RMSU=  2.15D-05    CP:  9.10D-01  9.81D-01  5.50D-01  9.37D-01  7.89D-01
 E= -686.658525338642     Delta-E=       -0.000005173476 Rises=F Damp=F
 DIIS: error= 3.90D-05 at cycle   6 NSaved=   6.
 NSaved= 6 IEnMin= 6 EnMin= -686.658525338642     IErMin= 6 ErrMin= 3.90D-05
 ErrMax= 3.90D-05  0.00D+00 EMaxC= 1.00D-01 BMatC= 1.28D-06 BMatP= 7.32D-06
 IDIUse=1 WtCom= 1.00D+00 WtEn= 0.00D+00
 Coeff-Com:  0.152D-03-0.104D-01-0.437D-02 0.770D-01 0.332D+00 0.605D+00
 Coeff:      0.152D-03-0.104D-01-0.437D-02 0.770D-01 0.332D+00 0.605D+00
 Gap=     0.278 Goal=   None    Shift=    0.000
 RMSDP=8.39D-06 MaxDP=4.81D-04 DE=-5.17D-06 OVMax= 1.63D-04

 Cycle   7  Pass 1  IDiag  1:
 RMSU=  5.13D-06    CP:  9.10D-01  9.80D-01  5.52D-01  9.43D-01  8.26D-01
                    CP:  7.92D-01
 E= -686.658526226062     Delta-E=       -0.000000887420 Rises=F Damp=F
 DIIS: error= 8.27D-06 at cycle   7 NSaved=   7.
 NSaved= 7 IEnMin= 7 EnMin= -686.658526226062     IErMin= 7 ErrMin= 8.27D-06
 ErrMax= 8.27D-06  0.00D+00 EMaxC= 1.00D-01 BMatC= 8.34D-08 BMatP= 1.28D-06
 IDIUse=1 WtCom= 1.00D+00 WtEn= 0.00D+00
 Coeff-Com:  0.291D-03-0.695D-02-0.442D-02 0.178D-01 0.138D+00 0.313D+00
 Coeff-Com:  0.543D+00
 Coeff:      0.291D-03-0.695D-02-0.442D-02 0.178D-01 0.138D+00 0.313D+00
 Coeff:      0.543D+00
 Gap=     0.278 Goal=   None    Shift=    0.000
 RMSDP=2.23D-06 MaxDP=2.28D-04 DE=-8.87D-07 OVMax= 3.86D-05

 Cycle   8  Pass 1  IDiag  1:
 RMSU=  1.48D-06    CP:  9.10D-01  9.80D-01  5.52D-01  9.46D-01  8.37D-01
                    CP:  7.64D-01  8.20D-01
 E= -686.658526290654     Delta-E=       -0.000000064592 Rises=F Damp=F
 DIIS: error= 1.30D-06 at cycle   8 NSaved=   8.
 NSaved= 8 IEnMin= 8 EnMin= -686.658526290654     IErMin= 8 ErrMin= 1.30D-06
 ErrMax= 1.30D-06  0.00D+00 EMaxC= 1.00D-01 BMatC= 2.08D-09 BMatP= 8.34D-08
 IDIUse=1 WtCom= 1.00D+00 WtEn= 0.00D+00
 Coeff-Com:  0.911D-04-0.160D-02-0.130D-02-0.613D-04 0.197D-01 0.543D-01
 Coeff-Com:  0.167D+00 0.762D+00
 Coeff:      0.911D-04-0.160D-02-0.130D-02-0.613D-04 0.197D-01 0.543D-01
 Coeff:      0.167D+00 0.762D+00
 Gap=     0.278 Goal=   None    Shift=    0.000
 RMSDP=8.49D-07 MaxDP=1.66D-04 DE=-6.46D-08 OVMax= 1.39D-05

 Cycle   9  Pass 1  IDiag  1:
 RMSU=  5.89D-07    CP:  9.10D-01  9.80D-01  5.52D-01  9.47D-01  8.38D-01
                    CP:  7.85D-01  8.66D-01  9.32D-01
 E= -686.658526292333     Delta-E=       -0.000000001679 Rises=F Damp=F
 DIIS: error= 5.69D-07 at cycle   9 NSaved=   9.
 NSaved= 9 IEnMin= 9 EnMin= -686.658526292333     IErMin= 9 ErrMin= 5.69D-07
 ErrMax= 5.69D-07  0.00D+00 EMaxC= 1.00D-01 BMatC= 3.08D-10 BMatP= 2.08D-09
 IDIUse=1 WtCom= 1.00D+00 WtEn= 0.00D+00
 Coeff-Com:  0.179D-04-0.188D-03-0.243D-03-0.109D-02-0.114D-02 0.664D-03
 Coeff-Com:  0.313D-01 0.320D+00 0.651D+00
 Coeff:      0.179D-04-0.188D-03-0.243D-03-0.109D-02-0.114D-02 0.664D-03
 Coeff:      0.313D-01 0.320D+00 0.651D+00
 Gap=     0.278 Goal=   None    Shift=    0.000
 RMSDP=1.63D-07 MaxDP=1.14D-05 DE=-1.68D-09 OVMax= 3.67D-06

 Cycle  10  Pass 1  IDiag  1:
 RMSU=  9.66D-08    CP:  9.10D-01  9.80D-01  5.52D-01  9.47D-01  8.39D-01
                    CP:  7.84D-01  8.74D-01  9.74D-01  9.53D-01
 E= -686.658526292527     Delta-E=       -0.000000000195 Rises=F Damp=F
 DIIS: error= 2.69D-07 at cycle  10 NSaved=  10.
 NSaved=10 IEnMin=10 EnMin= -686.658526292527     IErMin=10 ErrMin= 2.69D-07
 ErrMax= 2.69D-07  0.00D+00 EMaxC= 1.00D-01 BMatC= 7.46D-11 BMatP= 3.08D-10
 IDIUse=1 WtCom= 1.00D+00 WtEn= 0.00D+00
 Coeff-Com: -0.109D-06 0.741D-04 0.144D-04-0.526D-03-0.265D-02-0.560D-02
 Coeff-Com: -0.255D-02 0.841D-01 0.372D+00 0.555D+00
 Coeff:     -0.109D-06 0.741D-04 0.144D-04-0.526D-03-0.265D-02-0.560D-02
 Coeff:     -0.255D-02 0.841D-01 0.372D+00 0.555D+00
 Gap=     0.278 Goal=   None    Shift=    0.000
 RMSDP=6.32D-08 MaxDP=4.68D-06 DE=-1.95D-10 OVMax= 1.12D-06

 Cycle  11  Pass 1  IDiag  1:
 RMSU=  4.59D-08    CP:  9.10D-01  9.80D-01  5.52D-01  9.47D-01  8.39D-01
                    CP:  7.84D-01  8.76D-01  9.87D-01  9.37D-01  7.88D-01
 E= -686.658526292562     Delta-E=       -0.000000000035 Rises=F Damp=F
 DIIS: error= 4.43D-08 at cycle  11 NSaved=  11.
 NSaved=11 IEnMin=11 EnMin= -686.658526292562     IErMin=11 ErrMin= 4.43D-08
 ErrMax= 4.43D-08  0.00D+00 EMaxC= 1.00D-01 BMatC= 1.29D-12 BMatP= 7.46D-11
 IDIUse=1 WtCom= 1.00D+00 WtEn= 0.00D+00
 Coeff-Com: -0.712D-06 0.312D-04 0.165D-04-0.121D-03-0.822D-03-0.182D-02
 Coeff-Com: -0.236D-02 0.112D-01 0.921D-01 0.187D+00 0.714D+00
 Coeff:     -0.712D-06 0.312D-04 0.165D-04-0.121D-03-0.822D-03-0.182D-02
 Coeff:     -0.236D-02 0.112D-01 0.921D-01 0.187D+00 0.714D+00
 Gap=     0.278 Goal=   None    Shift=    0.000
 RMSDP=2.18D-08 MaxDP=2.72D-06 DE=-3.48D-11 OVMax= 2.58D-07

 Cycle  12  Pass 1  IDiag  1:
 RMSU=  1.20D-08    CP:  9.10D-01  9.80D-01  5.52D-01  9.47D-01  8.39D-01
                    CP:  7.84D-01  8.76D-01  9.88D-01  9.64D-01  8.02D-01
                    CP:  9.94D-01
 E= -686.658526292580     Delta-E=       -0.000000000018 Rises=F Damp=F
 DIIS: error= 1.77D-08 at cycle  12 NSaved=  12.
 NSaved=12 IEnMin=12 EnMin= -686.658526292580     IErMin=12 ErrMin= 1.77D-08
 ErrMax= 1.77D-08  0.00D+00 EMaxC= 1.00D-01 BMatC= 2.21D-13 BMatP= 1.29D-12
 IDIUse=1 WtCom= 1.00D+00 WtEn= 0.00D+00
 Coeff-Com: -0.338D-06 0.831D-05 0.686D-05-0.124D-04-0.155D-03-0.350D-03
 Coeff-Com: -0.920D-03-0.280D-02 0.861D-02 0.355D-01 0.338D+00 0.622D+00
 Coeff:     -0.338D-06 0.831D-05 0.686D-05-0.124D-04-0.155D-03-0.350D-03
 Coeff:     -0.920D-03-0.280D-02 0.861D-02 0.355D-01 0.338D+00 0.622D+00
 Gap=     0.278 Goal=   None    Shift=    0.000
 RMSDP=4.16D-09 MaxDP=3.56D-07 DE=-1.80D-11 OVMax= 7.06D-08

 SCF Done:  E(RPBE1PBE) =  -686.658526293     A.U. after   12 cycles
            NFock= 12  Conv=0.42D-08     -V/T= 2.0033
 KE= 6.844303911244D+02 PE=-3.270398830716D+03 EE= 1.070716795183D+03
 Leave Link  502 at Fri Nov  1 11:02:05 2024, MaxMem=  4294967296 cpu:             472.5 elap:              16.9
 (Enter /home/matma/Software/gaussian16.B01_files/AVX2/tar//g16/l701.exe)
 ... and contract with generalized density number  0.
 Compute integral first derivatives.
 R6Disp: Adding Grimme-D3 dispersion energy 1st derivatives to the gradient.
 Leave Link  701 at Fri Nov  1 11:02:06 2024, MaxMem=  4294967296 cpu:               3.7 elap:               0.2
 (Enter /home/matma/Software/gaussian16.B01_files/AVX2/tar//g16/l702.exe)
 L702 exits ... SP integral derivatives will be done elsewhere.
 Leave Link  702 at Fri Nov  1 11:02:06 2024, MaxMem=  4294967296 cpu:               0.3 elap:               0.0
 (Enter /home/matma/Software/gaussian16.B01_files/AVX2/tar//g16/l703.exe)
 Integral derivatives from FoFJK, PRISM(SPDF).
 Compute integral first derivatives, UseDBF=F ICtDFT=           0.
 Calling FoFJK, ICntrl=      2127 FMM=F ISym2X=0 I1Cent= 0 IOpClX= 0 NMat=1 NMatS=1 NMatT=0.
 FoFJK:  IHMeth= 1 ICntrl=    2127 DoSepK=F KAlg= 0 I1Cent=           0 FoldK=F
 IRaf=         0 NMat=       1 IRICut=       1 DoRegI=T DoRafI=F ISym2E= 0 IDoP0=0 IntGTp=1.
 FoFCou: FMM=F IPFlag=           0 FMFlag=      100000 FMFlg1=         800
         NFxFlg=           0 DoJE=F BraDBF=F KetDBF=F FulRan=T
         wScrn=  0.000000 ICntrl=      2127 IOpCl=  0 I1Cent=           0 NGrid=           0
         NMat0=    1 NMatS0=      1 NMatT0=    0 NMatD0=    1 NMtDS0=    0 NMtDT0=    0
 Symmetry not used in FoFCou.
 Leave Link  703 at Fri Nov  1 11:02:10 2024, MaxMem=  4294967296 cpu:             125.2 elap:               4.5
 (Enter /home/matma/Software/gaussian16.B01_files/AVX2/tar//g16/l716.exe)
 Dipole        = 2.10300834D-01 9.93315608D-01 6.73146578D-02
 ***** Axes restored to original set *****
 -------------------------------------------------------------------
 Center     Atomic                   Forces (Hartrees/Bohr)
 Number     Number              X              Y              Z
 -------------------------------------------------------------------
      1        8          -0.006618576   -0.001901822   -0.001717517
      2        8          -0.000427082    0.000226795   -0.000000099
      3        8          -0.004355440    0.002719370    0.002052081
      4        8          -0.014122448    0.004585636    0.002965587
      5        8          -0.000747170   -0.001825024    0.000974821
      6        8           0.000089001   -0.000163794   -0.000131109
      7        6          -0.000370502    0.001711146   -0.001540925
      8        6           0.009877433   -0.008694150    0.001727420
      9        6           0.000520117    0.001090065    0.001261171
     10        6           0.008012446    0.003314341   -0.001649146
     11        6           0.000621574    0.003370547   -0.000413075
     12        6           0.000111888   -0.000693932   -0.000255177
     13        1           0.000690901   -0.001186552   -0.000657892
     14        1          -0.002331001   -0.000886249   -0.001762234
     15        1          -0.000206968    0.000024626   -0.000087485
     16        1           0.009577446    0.000249734   -0.002881215
     17        1           0.001122002    0.001414364    0.000407250
     18        1           0.000025451    0.000468675    0.000034644
     19        1          -0.000230251    0.000204590    0.000005958
     20        1           0.000048526    0.000610682   -0.000430649
     21        1          -0.001809946    0.000104775   -0.000288009
     22        1           0.000096670   -0.005031811    0.002334214
     23        1           0.000287668    0.000276276   -0.000340887
     24        1           0.000138262    0.000011714    0.000392272
 -------------------------------------------------------------------
 Cartesian Forces:  Max     0.014122448 RMS     0.003208122
 Leave Link  716 at Fri Nov  1 11:02:10 2024, MaxMem=  4294967296 cpu:               0.3 elap:               0.0
 (Enter /home/matma/Software/gaussian16.B01_files/AVX2/tar//g16/l103.exe)

 GradGradGradGradGradGradGradGradGradGradGradGradGradGradGradGradGradGrad
 Berny optimization.
 Using GEDIIS/GDIIS optimizer.
 FormGI is forming the generalized inverse of G from B-inverse, IUseBI=4.
 Internal  Forces:  Max     0.014777301 RMS     0.001993483
 Search for a local minimum.
 Step number   6 out of a maximum of  142
 All quantities printed in internal units (Hartrees-Bohrs-Radians)
 RMS Force = .19935D-02 SwitMx=.10000D-02 MixMth= 1
 Mixed Optimization -- RFO/linear search
 Update second derivatives using D2CorX and points    5    6
 DE= -8.62D-04 DEPred=-5.61D-03 R= 1.54D-01
 Trust test= 1.54D-01 RLast= 1.13D+00 DXMaxT set to 1.43D+00
 ITU=  0  1  0  1  1  0
 Use linear search instead of GDIIS.
     Eigenvalues ---   -0.00036   0.00089   0.00310   0.00341   0.00441
     Eigenvalues ---    0.00589   0.00717   0.00774   0.00830   0.02349
     Eigenvalues ---    0.02416   0.03655   0.04144   0.04646   0.04978
     Eigenvalues ---    0.05105   0.05368   0.05647   0.05816   0.05935
     Eigenvalues ---    0.06206   0.06544   0.06757   0.07045   0.07087
     Eigenvalues ---    0.08522   0.09532   0.09866   0.10702   0.12198
     Eigenvalues ---    0.13925   0.14766   0.15536   0.15910   0.16418
     Eigenvalues ---    0.17095   0.17206   0.17780   0.19575   0.20289
     Eigenvalues ---    0.20535   0.23876   0.24237   0.25483   0.26476
     Eigenvalues ---    0.28558   0.29783   0.30067   0.31386   0.31984
     Eigenvalues ---    0.32745   0.33051   0.33229   0.33713   0.33839
     Eigenvalues ---    0.34314   0.36149   0.36999   0.37863   0.39070
     Eigenvalues ---    0.39768   0.49697   0.49755   0.49834   0.49911
     Eigenvalues ---    0.50221
 Eigenvalue     1 is  -3.56D-04 should be greater than     0.000000 Eigenvector:
                          D13       D15       D14       D60       D59
   1                   -0.50360  -0.49456  -0.48986  -0.15124  -0.13334
                          D58       D46       D66       D17       D43
   1                   -0.12962   0.12709  -0.12575  -0.12300   0.10997
 RFO step:  Lambda=-4.24986904D-03 EMin=-3.56171779D-04
 Quartic linear search produced a step of -0.36299.
 Iteration  1 RMS(Cart)=  0.08903476 RMS(Int)=  0.01891569
 Iteration  2 RMS(Cart)=  0.01824977 RMS(Int)=  0.00127938
 Iteration  3 RMS(Cart)=  0.00110594 RMS(Int)=  0.00057029
 Iteration  4 RMS(Cart)=  0.00000222 RMS(Int)=  0.00057029
 Iteration  5 RMS(Cart)=  0.00000000 RMS(Int)=  0.00057029
 ITry= 1 IFail=0 DXMaxC= 5.18D-01 DCOld= 1.00D+10 DXMaxT= 1.43D+00 DXLimC= 3.00D+00 Rises=F
 Variable       Old X    -DE/DX   Delta X   Delta X   Delta X     New X
                                 (Linear)    (Quad)   (Total)
    R1        2.68937  -0.00193  -0.00663  -0.00504  -0.01126   2.67811
    R2        2.68209   0.00424   0.00426   0.00166   0.00594   2.68803
    R3        2.67258  -0.00046   0.00165   0.00438   0.00603   2.67861
    R4        1.81743   0.00046   0.00043   0.00138   0.00181   1.81924
    R5        2.68412  -0.00566  -0.01178  -0.00563  -0.01740   2.66672
    R6        1.81590   0.00065   0.00161   0.00273   0.00434   1.82024
    R7        2.67679  -0.01478  -0.00932  -0.01085  -0.02017   2.65662
    R8        1.81074   0.00436   0.00054   0.00957   0.01012   1.82086
    R9        2.59673  -0.00143  -0.00177  -0.00193  -0.00371   2.59302
   R10        1.81774  -0.00023  -0.00020  -0.00003  -0.00022   1.81751
   R11        2.65528  -0.00033  -0.00006   0.00049   0.00043   2.65571
   R12        1.81811   0.00014   0.00014   0.00035   0.00049   1.81860
   R13        2.86915   0.00015   0.00349  -0.00710  -0.00357   2.86558
   R14        2.89413   0.00071  -0.00563  -0.00561  -0.01048   2.88364
   R15        2.07067  -0.00054  -0.00023  -0.00132  -0.00155   2.06912
   R16        2.85600   0.00502   0.00425   0.00651   0.01030   2.86630
   R17        2.08225   0.00175   0.00757  -0.00442   0.00315   2.08541
   R18        2.85999  -0.00010   0.00104   0.00108   0.00212   2.86210
   R19        2.08915   0.00011   0.00078   0.00027   0.00105   2.09020
   R20        2.87621   0.00382   0.01072  -0.00982   0.00017   2.87638
   R21        2.09869  -0.00423  -0.00782   0.00157  -0.00625   2.09245
   R22        2.07835  -0.00055  -0.00090  -0.00042  -0.00133   2.07702
   R23        2.07946   0.00003   0.00003  -0.00017  -0.00014   2.07932
   R24        2.06427  -0.00007  -0.00029  -0.00064  -0.00094   2.06334
    A1        1.98840  -0.00013   0.00163   0.01544   0.01564   2.00403
    A2        1.90393  -0.00108  -0.00205  -0.00739  -0.00943   1.89450
    A3        1.90043  -0.00301  -0.01235  -0.01030  -0.02266   1.87778
    A4        1.88746  -0.00534   0.00908  -0.05342  -0.04434   1.84312
    A5        1.89973   0.00064   0.00121  -0.00153  -0.00032   1.89940
    A6        1.86848  -0.00044  -0.00100  -0.00120  -0.00219   1.86629
    A7        1.94416  -0.00047  -0.00773  -0.01221  -0.01946   1.92470
    A8        1.98170  -0.00146  -0.00206  -0.00838  -0.01012   1.97158
    A9        1.84672   0.00044  -0.00192  -0.00039  -0.00235   1.84437
   A10        1.88269   0.00179   0.01294   0.00240   0.01426   1.89695
   A11        1.90637  -0.00068  -0.00488   0.00933   0.00452   1.91089
   A12        1.90089   0.00035   0.00303   0.01046   0.01356   1.91445
   A13        1.98441  -0.00199  -0.01189  -0.00152  -0.01229   1.97211
   A14        1.86626   0.00239   0.01993  -0.02483  -0.00423   1.86203
   A15        1.89395   0.00145   0.00711   0.00964   0.01678   1.91073
   A16        1.91806  -0.00033   0.00576   0.02501   0.02912   1.94718
   A17        1.91665  -0.00183  -0.02019  -0.01433  -0.03443   1.88222
   A18        1.88122   0.00055  -0.00038   0.00628   0.00677   1.88799
   A19        1.92354   0.00060  -0.00258   0.00240  -0.00054   1.92300
   A20        1.85431  -0.00058   0.00011  -0.00242  -0.00210   1.85221
   A21        1.90241   0.00001   0.00237   0.00099   0.00337   1.90579
   A22        1.98297   0.00017  -0.00021  -0.00131  -0.00127   1.98171
   A23        1.90256  -0.00029   0.00152   0.00083   0.00229   1.90485
   A24        1.89628   0.00008  -0.00112  -0.00049  -0.00167   1.89461
   A25        1.95858   0.00110   0.00974  -0.03024  -0.01864   1.93994
   A26        1.93587   0.00104   0.00326  -0.05798  -0.05250   1.88337
   A27        1.98662  -0.00345  -0.04493   0.02819  -0.01693   1.96969
   A28        1.86450  -0.00118   0.01382   0.03415   0.04508   1.90958
   A29        1.87754   0.00111   0.00613   0.00707   0.01243   1.88997
   A30        1.83236   0.00151   0.01339   0.02433   0.03709   1.86945
   A31        1.90390   0.00040  -0.00556  -0.00832  -0.01282   1.89107
   A32        1.84308   0.00070   0.01740   0.03005   0.04529   1.88837
   A33        1.90938  -0.00051   0.00308   0.00511   0.00893   1.91831
   A34        2.00507  -0.00070  -0.00971  -0.01361  -0.02239   1.98268
   A35        1.86348  -0.00011  -0.00238   0.00316   0.00014   1.86362
   A36        1.93793   0.00022  -0.00273  -0.01578  -0.01862   1.91931
   A37        1.94683  -0.00019  -0.00156  -0.00201  -0.00358   1.94324
   A38        1.95081  -0.00024  -0.00129  -0.00464  -0.00594   1.94487
   A39        1.87726  -0.00000  -0.00025  -0.00004  -0.00028   1.87697
   A40        1.89383   0.00006  -0.00063  -0.00056  -0.00121   1.89262
   A41        1.91089   0.00030   0.00270   0.00374   0.00644   1.91733
   A42        1.88295   0.00009   0.00121   0.00391   0.00511   1.88806
    D1        1.07229  -0.00078   0.00370   0.00079   0.00416   1.07645
    D2       -3.05546  -0.00058   0.00200  -0.00092   0.00097  -3.05448
    D3       -1.01501  -0.00079   0.00194  -0.00228  -0.00041  -1.01542
    D4        2.96145   0.00026   0.02310   0.05489   0.07847   3.03993
    D5       -1.15792   0.00007   0.01865   0.05197   0.07144  -1.08649
    D6        0.92890   0.00046   0.02739   0.05293   0.08061   1.00951
    D7       -1.24280  -0.00059  -0.01470   0.02099   0.00653  -1.23627
    D8        0.88681   0.00032  -0.00509   0.00873   0.00340   0.89020
    D9        2.97065   0.00021  -0.00380   0.01656   0.01275   2.98340
   D10        0.85479  -0.00114  -0.05199   0.00592  -0.04564   0.80915
   D11        2.97490  -0.00112  -0.03838   0.01905  -0.01971   2.95519
   D12       -1.28338   0.00150  -0.02372   0.01828  -0.00550  -1.28888
   D13       -0.60099  -0.00092   0.20372  -0.50629  -0.30290  -0.90389
   D14       -2.68492  -0.00086   0.17638  -0.48978  -0.31281  -2.99773
   D15        1.53659  -0.00122   0.18600  -0.49897  -0.31323   1.22336
   D16        1.30871   0.00057  -0.01995   0.01447  -0.00632   1.30239
   D17       -0.75610  -0.00015  -0.03191  -0.00919  -0.04045  -0.79654
   D18       -2.91287   0.00011  -0.02050   0.01788  -0.00244  -2.91531
   D19       -0.91558  -0.00002  -0.00535  -0.02318  -0.02854  -0.94412
   D20        1.20818  -0.00024  -0.00817  -0.02863  -0.03679   1.17139
   D21       -3.01123  -0.00027  -0.00758  -0.02655  -0.03414  -3.04537
   D22       -1.02651   0.00012   0.00507  -0.05841  -0.05328  -1.07979
   D23       -3.11751  -0.00138  -0.01649  -0.04343  -0.06028   3.10540
   D24        1.09910  -0.00074  -0.00735  -0.05758  -0.06464   1.03447
   D25        3.07077   0.00103   0.00385  -0.04129  -0.03743   3.03334
   D26        0.97977  -0.00048  -0.01771  -0.02632  -0.04443   0.93535
   D27       -1.08680   0.00016  -0.00857  -0.04046  -0.04879  -1.13559
   D28        1.00713  -0.00003  -0.00446  -0.06032  -0.06470   0.94243
   D29       -1.08386  -0.00154  -0.02602  -0.04535  -0.07170  -1.15556
   D30        3.13275  -0.00090  -0.01688  -0.05949  -0.07606   3.05669
   D31       -3.09139  -0.00018  -0.00828   0.00654  -0.00152  -3.09291
   D32        1.11317   0.00003  -0.00648   0.00881   0.00238   1.11554
   D33       -1.00418   0.00002  -0.00601   0.00972   0.00371  -1.00046
   D34       -0.92799  -0.00045  -0.01004  -0.01310  -0.02290  -0.95089
   D35       -3.00662  -0.00025  -0.00824  -0.01083  -0.01901  -3.02563
   D36        1.15922  -0.00026  -0.00776  -0.00992  -0.01767   1.14155
   D37        1.13916  -0.00006  -0.00663   0.00516  -0.00136   1.13780
   D38       -0.93948   0.00014  -0.00483   0.00743   0.00254  -0.93694
   D39       -3.05682   0.00013  -0.00435   0.00834   0.00387  -3.05295
   D40        0.89977   0.00155   0.02703   0.14566   0.17316   1.07293
   D41        3.02499   0.00271   0.04765   0.07817   0.12615  -3.13204
   D42       -1.29848   0.00439   0.07330   0.12516   0.19841  -1.10006
   D43        3.06128   0.00044   0.02935   0.14315   0.17318  -3.04872
   D44       -1.09668   0.00161   0.04997   0.07566   0.12617  -0.97051
   D45        0.86304   0.00329   0.07562   0.12265   0.19843   1.06147
   D46       -1.13359  -0.00163   0.00803   0.14398   0.15236  -0.98123
   D47        0.99163  -0.00047   0.02865   0.07649   0.10535   1.09698
   D48        2.95135   0.00121   0.05430   0.12348   0.17761   3.12896
   D49        1.08849  -0.00044  -0.00412  -0.01092  -0.01496   1.07353
   D50       -1.06793  -0.00006  -0.00104  -0.00333  -0.00429  -1.07222
   D51       -3.11896  -0.00037  -0.00366  -0.00980  -0.01339  -3.13235
   D52       -3.07691   0.00001  -0.00739  -0.01039  -0.01784  -3.09475
   D53        1.04986   0.00039  -0.00431  -0.00280  -0.00718   1.04268
   D54       -1.00117   0.00008  -0.00693  -0.00927  -0.01627  -1.01744
   D55       -0.95606  -0.00019  -0.00639  -0.01055  -0.01696  -0.97302
   D56       -3.11248   0.00019  -0.00331  -0.00297  -0.00629  -3.11877
   D57        1.11968  -0.00012  -0.00593  -0.00944  -0.01539   1.10429
   D58       -3.01421   0.00006  -0.01946  -0.14233  -0.16230   3.10667
   D59       -0.91552   0.00063  -0.02031  -0.13981  -0.16054  -1.07605
   D60        1.20110   0.00014  -0.03225  -0.15783  -0.18980   1.01130
   D61        1.12949  -0.00115  -0.04344  -0.09228  -0.13569   0.99379
   D62       -3.05500  -0.00058  -0.04428  -0.08976  -0.13393   3.09425
   D63       -0.93838  -0.00106  -0.05622  -0.10779  -0.16320  -1.10158
   D64       -0.86107  -0.00257  -0.06371  -0.12586  -0.19008  -1.05115
   D65        1.23763  -0.00200  -0.06456  -0.12334  -0.18832   1.04931
   D66       -2.92894  -0.00249  -0.07650  -0.14136  -0.21759   3.13666
         Item               Value     Threshold  Converged?
 Maximum Force            0.014777     0.000450     NO 
 RMS     Force            0.001993     0.000300     NO 
 Maximum Displacement     0.518289     0.001800     NO 
 RMS     Displacement     0.086512     0.001200     NO 
 Predicted change in Energy=-4.959267D-03
 Lowest energy point so far.  Saving SCF results.
 GradGradGradGradGradGradGradGradGradGradGradGradGradGradGradGradGradGrad

 Leave Link  103 at Fri Nov  1 11:02:10 2024, MaxMem=  4294967296 cpu:               0.7 elap:               0.0
 (Enter /home/matma/Software/gaussian16.B01_files/AVX2/tar//g16/l202.exe)
                          Input orientation:                          
 ---------------------------------------------------------------------
 Center     Atomic      Atomic             Coordinates (Angstroms)
 Number     Number       Type             X           Y           Z
 ---------------------------------------------------------------------
      1          8           0       -0.658467    1.145376    0.228256
      2          8           0       -0.850714   -2.489278   -0.307521
      3          8           0        1.971085   -1.979288    0.082140
      4          8           0        2.832792    0.608007   -0.481806
      5          8           0        0.995459    2.688963    0.097712
      6          8           0       -3.415547    0.957119   -0.061533
      7          6           0       -0.357463   -1.249432    0.170679
      8          6           0        1.045579   -1.005793   -0.350453
      9          6           0       -1.237582   -0.066737   -0.223242
     10          6           0        1.583170    0.338103    0.102943
     11          6           0        0.620234    1.437628   -0.322068
     12          6           0       -2.626402   -0.119191    0.378689
     13          1           0       -0.330963   -1.342438    1.261331
     14          1           0        1.001267   -1.004533   -1.453112
     15          1           0       -1.332375   -0.036277   -1.324838
     16          1           0        1.616048    0.343694    1.209715
     17          1           0        0.555735    1.476908   -1.418584
     18          1           0       -2.530618   -0.125625    1.474821
     19          1           0       -3.127585   -1.040526    0.075141
     20          1           0       -1.026311   -2.405842   -1.250385
     21          1           0        1.565856   -2.843617   -0.046451
     22          1           0        3.375440   -0.167972   -0.303394
     23          1           0        1.257983    2.640639    1.021714
     24          1           0       -2.924822    1.762013    0.132046
 ---------------------------------------------------------------------
                    Distance matrix (angstroms):
                    1          2          3          4          5
     1  O    0.000000
     2  O    3.678957   0.000000
     3  O    4.086492   2.893869   0.000000
     4  O    3.603033   4.815783   2.784720   0.000000
     5  O    2.266092   5.512418   4.769135   2.835844   0.000000
     6  O    2.778652   4.303083   6.136687   6.272181   4.741479
     7  C    2.414338   1.417459   2.441856   3.748806   4.164935
     8  C    2.804676   2.408007   1.411166   2.411584   3.722175
     9  C    1.417196   2.454684   3.747886   4.134015   3.561371
    10  C    2.385861   3.753180   2.349726   1.405822   2.423215
    11  C    1.422443   4.193386   3.696416   2.368375   1.372170
    12  C    2.344041   3.039944   4.968378   5.574232   4.591574
    13  H    2.713618   2.011636   2.663737   4.105132   4.400636
    14  H    3.194343   2.635655   2.060993   2.626443   4.005871
    15  H    2.064597   2.698915   4.082612   4.298188   3.856085
    16  H    2.603723   4.051252   2.606476   2.100374   2.668702
    17  H    2.072747   4.352377   4.025006   2.611040   1.990374
    18  H    2.583470   3.403774   5.063689   5.756108   4.717156
    19  H    3.301236   2.725702   5.184376   6.209182   5.559595
    20  H    3.864304   0.962698   3.307862   4.956478   5.644640
    21  H    4.575494   2.456323   0.963230   3.702481   5.563773
    22  H    4.275505   4.821707   2.324159   0.963556   3.739956
    23  H    2.556983   5.703465   4.768127   2.978623   0.961787
    24  H    2.350716   4.750644   6.161958   5.904123   4.028526
                    6          7          8          9         10
     6  O    0.000000
     7  C    3.778183   0.000000
     8  C    4.882432   1.516399   0.000000
     9  C    2.412045   1.525959   2.472009   0.000000
    10  C    5.039584   2.508170   1.516783   2.868263   0.000000
    11  C    4.072627   2.901548   2.480328   2.392563   1.522115
    12  C    1.405343   2.543383   3.847226   1.514561   4.243307
    13  H    4.068487   1.094931   2.146170   2.157158   2.798212
    14  H    5.029196   2.131390   1.103550   2.721118   2.136023
    15  H    2.631041   2.158419   2.746644   1.106086   3.267893
    16  H    5.225831   2.740874   2.140251   3.219475   1.107274
    17  H    4.228811   3.285212   2.746753   2.650974   2.160450
    18  H    2.077455   2.772423   4.110414   2.135142   4.361232
    19  H    2.022916   2.779630   4.194953   2.146954   4.908422
    20  H    4.293172   1.950401   2.657582   2.563410   4.021209
    21  H    6.265795   2.507534   1.934089   3.949883   3.185273
    22  H    6.887803   3.915210   2.476371   4.614828   1.906162
    23  H    5.084245   4.297276   3.901849   3.886855   2.500311
    24  H    0.962361   3.957478   4.863912   2.513432   4.727617
                   11         12         13         14         15
    11  C    0.000000
    12  C    3.668158   0.000000
    13  H    3.337768   2.746713   0.000000
    14  H    2.718198   4.159244   3.042568   0.000000
    15  H    2.643979   2.140884   3.065478   2.529794   0.000000
    16  H    2.129482   4.347786   2.576151   3.047347   3.906602
    17  H    1.099114   3.987946   3.989598   2.521357   2.421462
    18  H    3.949739   1.100328   2.522834   4.671133   3.046615
    19  H    4.510562   1.091872   3.052751   4.402757   2.488219
    20  H    4.283123   3.231555   2.814792   2.473022   2.390410
    21  H    4.393088   5.017795   2.749864   2.383209   4.232632
    22  H    3.188959   6.040672   4.191081   2.767379   4.819151
    23  H    1.913037   4.808179   4.295005   4.413383   4.402515
    24  H    3.588714   1.920629   4.200120   5.057735   2.809314
                   16         17         18         19         20
    16  H    0.000000
    17  H    3.052277   0.000000
    18  H    4.181552   4.523879   0.000000
    19  H    5.070047   4.704841   1.775533   0.000000
    20  H    4.538072   4.196059   3.858637   2.834865   0.000000
    21  H    3.426284   4.644354   5.146148   5.029345   2.891441
    22  H    2.376291   3.449640   6.168092   6.572212   5.027948
    23  H    2.332276   2.793291   4.712856   5.803463   5.987270
    24  H    4.877756   3.820997   2.349813   2.810441   4.783982
                   21         22         23         24
    21  H    0.000000
    22  H    3.240322   0.000000
    23  H    5.595786   3.758701   0.000000
    24  H    6.435051   6.603617   4.365702   0.000000
 Stoichiometry    C6H12O6
 Framework group  C1[X(C6H12O6)]
 Deg. of freedom    66
 Full point group                 C1      NOp   1
 RotChk:  IX=2 Diff= 1.17D-02
 Largest Abelian subgroup         C1      NOp   1
 Largest concise Abelian subgroup C1      NOp   1
                         Standard orientation:                         
 ---------------------------------------------------------------------
 Center     Atomic      Atomic             Coordinates (Angstroms)
 Number     Number       Type             X           Y           Z
 ---------------------------------------------------------------------
      1          8           0       -0.708172   -1.120623   -0.208474
      2          8           0       -0.731598    2.536826    0.188063
      3          8           0        2.045095    1.897176   -0.317208
      4          8           0        2.832588   -0.699495    0.308745
      5          8           0        0.888848   -2.724378   -0.095898
      6          8           0       -3.437817   -0.808700    0.207039
      7          6           0       -0.311619    1.260305   -0.262824
      8          6           0        1.105244    0.979782    0.198988
      9          6           0       -1.216261    0.130691    0.221063
     10          6           0        1.566666   -0.401482   -0.225076
     11          6           0        0.584172   -1.443468    0.290485
     12          6           0       -2.630431    0.216630   -0.314319
     13          1           0       -0.336263    1.309970   -1.356351
     14          1           0        1.116287    1.022910    1.301640
     15          1           0       -1.256788    0.146689    1.326290
     16          1           0        1.543739   -0.451139   -1.330999
     17          1           0        0.573280   -1.437712    1.389530
     18          1           0       -2.589577    0.176815   -1.413167
     19          1           0       -3.079492    1.168727   -0.024422
     20          1           0       -0.862791    2.497109    1.140953
     21          1           0        1.680797    2.781678   -0.204265
     22          1           0        3.395411    0.046170    0.072836
     23          1           0        1.106370   -2.722543   -1.032762
     24          1           0       -2.989142   -1.639866    0.022672
 ---------------------------------------------------------------------
 Rotational constants (GHZ):           1.1751907           0.7964896           0.4965782
 Leave Link  202 at Fri Nov  1 11:02:10 2024, MaxMem=  4294967296 cpu:               0.1 elap:               0.0
 (Enter /home/matma/Software/gaussian16.B01_files/AVX2/tar//g16/l301.exe)
 Standard basis: 6-311+G(d,p) (5D, 7F)
 Ernie: Thresh=  0.10000D-02 Tol=  0.10000D-05 Strict=F.
 There are   348 symmetry adapted cartesian basis functions of A   symmetry.
 There are   336 symmetry adapted basis functions of A   symmetry.
   336 basis functions,   528 primitive gaussians,   348 cartesian basis functions
    48 alpha electrons       48 beta electrons
       nuclear repulsion energy       828.8714577352 Hartrees.
 IExCor= 1009 DFT=T Ex+Corr=PBE1PBE ExCW=0 ScaHFX=  0.250000
 ScaDFX=  0.750000  0.750000  1.000000  1.000000 ScalE2=  1.000000  1.000000
 IRadAn=  99590 IRanWt=     -1 IRanGd=            0 ICorTp=0 IEmpDi=131
 NAtoms=   24 NActive=   24 NUniq=   24 SFac= 1.00D+00 NAtFMM=   60 NAOKFM=F Big=F
 Integral buffers will be    131072 words long.
 Raffenetti 2 integral format.
 Two-electron integral symmetry is turned on.
 R6Disp:  Grimme-D3 Dispersion energy=       -0.0157314983 Hartrees.
 Nuclear repulsion after empirical dispersion term =      828.8557262368 Hartrees.
 Leave Link  301 at Fri Nov  1 11:02:10 2024, MaxMem=  4294967296 cpu:               0.8 elap:               0.0
 (Enter /home/matma/Software/gaussian16.B01_files/AVX2/tar//g16/l302.exe)
 NPDir=0 NMtPBC=     1 NCelOv=     1 NCel=       1 NClECP=     1 NCelD=      1
         NCelK=      1 NCelE2=     1 NClLst=     1 CellRange=     0.0.
 One-electron integrals computed using PRISM.
 One-electron integral symmetry used in STVInt
 NBasis=   336 RedAO= T EigKep=  7.84D-06  NBF=   336
 NBsUse=   336 1.00D-06 EigRej= -1.00D+00 NBFU=   336
 Precomputing XC quadrature grid using
 IXCGrd= 4 IRadAn=       99590 IRanWt=          -1 IRanGd=           0 AccXCQ= 0.00D+00.
 Generated NRdTot=       0 NPtTot=           0 NUsed=           0 NTot=          32
 NSgBfM=   348   348   348   348   348 MxSgAt=    24 MxSgA2=    24.
 Leave Link  302 at Fri Nov  1 11:02:11 2024, MaxMem=  4294967296 cpu:               5.4 elap:               0.2
 (Enter /home/matma/Software/gaussian16.B01_files/AVX2/tar//g16/l303.exe)
 DipDrv:  MaxL=1.
 Leave Link  303 at Fri Nov  1 11:02:11 2024, MaxMem=  4294967296 cpu:               0.8 elap:               0.0
 (Enter /home/matma/Software/gaussian16.B01_files/AVX2/tar//g16/l401.exe)
 Initial guess from the checkpoint file:  "input.chk"
 B after Tr=    -0.000000   -0.000000   -0.000000
         Rot=    0.999997   -0.000746    0.000170   -0.002367 Ang=  -0.29 deg.
 Guess basis will be translated and rotated to current coordinates.
 JPrj=2 DoOrth=T DoCkMO=T.
 Generating alternative initial guess.
 ExpMin= 4.38D-02 ExpMax= 8.59D+03 ExpMxC= 1.30D+03 IAcc=4 IRadAn=    199590 AccDes= 0.00D+00
 Harris functional with IExCor= 1009 and IRadAn=  199590 diagonalized for initial guess.
 HarFok:  IExCor= 1009 AccDes= 0.00D+00 IRadAn=    199590 IDoV= 1 UseB2=F ITyADJ=14
 ICtDFT=  3500011 ScaDFX=  1.000000  1.000000  1.000000  1.000000
 FoFCou: FMM=F IPFlag=           0 FMFlag=      100000 FMFlg1=           0
         NFxFlg=           0 DoJE=T BraDBF=F KetDBF=T FulRan=T
         wScrn=  0.000000 ICntrl=       500 IOpCl=  0 I1Cent=   200000004 NGrid=           0
         NMat0=    1 NMatS0=      1 NMatT0=    0 NMatD0=    1 NMtDS0=    0 NMtDT0=    0
 Petite list used in FoFCou.
 Harris En= -686.791700047758    
 Leave Link  401 at Fri Nov  1 11:02:12 2024, MaxMem=  4294967296 cpu:              40.8 elap:               1.5
 (Enter /home/matma/Software/gaussian16.B01_files/AVX2/tar//g16/l502.exe)
 Integral symmetry usage will be decided dynamically.
 Closed shell SCF:
 Using DIIS extrapolation, IDIIS=  1040.
 NGot=  4294967296 LenX=  4294711890 LenY=  4294590345
 Requested convergence on RMS density matrix=1.00D-08 within 128 cycles.
 Requested convergence on MAX density matrix=1.00D-06.
 Requested convergence on             energy=1.00D-06.
 No special actions if energy rises.
 Fock matrices will be formed incrementally for  20 cycles.

 Cycle   1  Pass 1  IDiag  1:
 FoFJK:  IHMeth= 1 ICntrl=       0 DoSepK=F KAlg= 0 I1Cent=           0 FoldK=F
 IRaf= 920000000 NMat=       1 IRICut=       1 DoRegI=T DoRafI=F ISym2E= 0 IDoP0=0 IntGTp=1.
 FoFCou: FMM=F IPFlag=           0 FMFlag=      100000 FMFlg1=           0
         NFxFlg=           0 DoJE=F BraDBF=F KetDBF=F FulRan=T
         wScrn=  0.000000 ICntrl=         0 IOpCl=  0 I1Cent=           0 NGrid=           0
         NMat0=    1 NMatS0=      1 NMatT0=    0 NMatD0=    1 NMtDS0=    0 NMtDT0=    0
 Symmetry not used in FoFCou.
 E= -686.627567612284    
 DIIS: error= 4.39D-03 at cycle   1 NSaved=   1.
 NSaved= 1 IEnMin= 1 EnMin= -686.627567612284     IErMin= 1 ErrMin= 4.39D-03
 ErrMax= 4.39D-03  0.00D+00 EMaxC= 1.00D-01 BMatC= 2.36D-02 BMatP= 2.36D-02
 IDIUse=3 WtCom= 9.56D-01 WtEn= 4.39D-02
 Coeff-Com:  0.100D+01
 Coeff-En:   0.100D+01
 Coeff:      0.100D+01
 Gap=     0.610 Goal=   None    Shift=    0.000
 GapD=    0.610 DampG=2.000 DampE=1.000 DampFc=2.0000 IDamp=-1.
 RMSDP=3.39D-03 MaxDP=3.44D-01              OVMax= 4.69D-02

 Cycle   2  Pass 1  IDiag  1:
 RMSU=  3.37D-03    CP:  9.83D-01
 E= -686.660785550321     Delta-E=       -0.033217938037 Rises=F Damp=F
 DIIS: error= 1.09D-03 at cycle   2 NSaved=   2.
 NSaved= 2 IEnMin= 2 EnMin= -686.660785550321     IErMin= 2 ErrMin= 1.09D-03
 ErrMax= 1.09D-03  0.00D+00 EMaxC= 1.00D-01 BMatC= 6.10D-04 BMatP= 2.36D-02
 IDIUse=3 WtCom= 9.89D-01 WtEn= 1.09D-02
 Coeff-Com: -0.471D-01 0.105D+01
 Coeff-En:   0.000D+00 0.100D+01
 Coeff:     -0.466D-01 0.105D+01
 Gap=     0.280 Goal=   None    Shift=    0.000
 RMSDP=4.13D-04 MaxDP=3.67D-02 DE=-3.32D-02 OVMax= 5.58D-03

 Cycle   3  Pass 1  IDiag  1:
 RMSU=  3.96D-04    CP:  9.81D-01  1.03D+00
 E= -686.660995238560     Delta-E=       -0.000209688239 Rises=F Damp=F
 DIIS: error= 8.46D-04 at cycle   3 NSaved=   3.
 NSaved= 3 IEnMin= 3 EnMin= -686.660995238560     IErMin= 3 ErrMin= 8.46D-04
 ErrMax= 8.46D-04  0.00D+00 EMaxC= 1.00D-01 BMatC= 5.41D-04 BMatP= 6.10D-04
 IDIUse=3 WtCom= 9.92D-01 WtEn= 8.46D-03
 Coeff-Com: -0.383D-01 0.527D+00 0.511D+00
 Coeff-En:   0.000D+00 0.318D+00 0.682D+00
 Coeff:     -0.380D-01 0.526D+00 0.512D+00
 Gap=     0.279 Goal=   None    Shift=    0.000
 RMSDP=1.69D-04 MaxDP=1.96D-02 DE=-2.10D-04 OVMax= 3.28D-03

 Cycle   4  Pass 1  IDiag  1:
 RMSU=  1.04D-04    CP:  9.80D-01  1.03D+00  6.74D-01
 E= -686.661348847291     Delta-E=       -0.000353608731 Rises=F Damp=F
 DIIS: error= 2.60D-04 at cycle   4 NSaved=   4.
 NSaved= 4 IEnMin= 4 EnMin= -686.661348847291     IErMin= 4 ErrMin= 2.60D-04
 ErrMax= 2.60D-04  0.00D+00 EMaxC= 1.00D-01 BMatC= 4.41D-05 BMatP= 5.41D-04
 IDIUse=3 WtCom= 9.97D-01 WtEn= 2.60D-03
 Coeff-Com: -0.100D-01 0.118D+00 0.250D+00 0.642D+00
 Coeff-En:   0.000D+00 0.000D+00 0.209D-02 0.998D+00
 Coeff:     -0.999D-02 0.118D+00 0.250D+00 0.643D+00
 Gap=     0.279 Goal=   None    Shift=    0.000
 RMSDP=4.45D-05 MaxDP=4.56D-03 DE=-3.54D-04 OVMax= 8.10D-04

 Cycle   5  Pass 1  IDiag  1:
 RMSU=  3.85D-05    CP:  9.81D-01  1.03D+00  6.42D-01  8.90D-01
 E= -686.661378032296     Delta-E=       -0.000029185005 Rises=F Damp=F
 DIIS: error= 4.34D-05 at cycle   5 NSaved=   5.
 NSaved= 5 IEnMin= 5 EnMin= -686.661378032296     IErMin= 5 ErrMin= 4.34D-05
 ErrMax= 4.34D-05  0.00D+00 EMaxC= 1.00D-01 BMatC= 1.09D-06 BMatP= 4.41D-05
 IDIUse=1 WtCom= 1.00D+00 WtEn= 0.00D+00
 Coeff-Com: -0.199D-02 0.172D-01 0.700D-01 0.235D+00 0.680D+00
 Coeff:     -0.199D-02 0.172D-01 0.700D-01 0.235D+00 0.680D+00
 Gap=     0.279 Goal=   None    Shift=    0.000
 RMSDP=1.14D-05 MaxDP=1.06D-03 DE=-2.92D-05 OVMax= 1.50D-04

 Cycle   6  Pass 1  IDiag  1:
 RMSU=  7.67D-06    CP:  9.81D-01  1.03D+00  6.56D-01  8.98D-01  8.67D-01
 E= -686.661378698296     Delta-E=       -0.000000666000 Rises=F Damp=F
 DIIS: error= 1.76D-05 at cycle   6 NSaved=   6.
 NSaved= 6 IEnMin= 6 EnMin= -686.661378698296     IErMin= 6 ErrMin= 1.76D-05
 ErrMax= 1.76D-05  0.00D+00 EMaxC= 1.00D-01 BMatC= 2.33D-07 BMatP= 1.09D-06
 IDIUse=1 WtCom= 1.00D+00 WtEn= 0.00D+00
 Coeff-Com:  0.191D-03-0.683D-02 0.609D-02 0.461D-01 0.359D+00 0.596D+00
 Coeff:      0.191D-03-0.683D-02 0.609D-02 0.461D-01 0.359D+00 0.596D+00
 Gap=     0.279 Goal=   None    Shift=    0.000
 RMSDP=3.54D-06 MaxDP=2.44D-04 DE=-6.66D-07 OVMax= 6.07D-05

 Cycle   7  Pass 1  IDiag  1:
 RMSU=  2.25D-06    CP:  9.81D-01  1.03D+00  6.58D-01  9.05D-01  8.92D-01
                    CP:  7.42D-01
 E= -686.661378867715     Delta-E=       -0.000000169418 Rises=F Damp=F
 DIIS: error= 4.25D-06 at cycle   7 NSaved=   7.
 NSaved= 7 IEnMin= 7 EnMin= -686.661378867715     IErMin= 7 ErrMin= 4.25D-06
 ErrMax= 4.25D-06  0.00D+00 EMaxC= 1.00D-01 BMatC= 1.21D-08 BMatP= 2.33D-07
 IDIUse=1 WtCom= 1.00D+00 WtEn= 0.00D+00
 Coeff-Com:  0.199D-03-0.447D-02-0.516D-04 0.129D-01 0.148D+00 0.298D+00
 Coeff-Com:  0.545D+00
 Coeff:      0.199D-03-0.447D-02-0.516D-04 0.129D-01 0.148D+00 0.298D+00
 Coeff:      0.545D+00
 Gap=     0.279 Goal=   None    Shift=    0.000
 RMSDP=1.25D-06 MaxDP=1.29D-04 DE=-1.69D-07 OVMax= 1.67D-05

 Cycle   8  Pass 1  IDiag  1:
 RMSU=  8.01D-07    CP:  9.81D-01  1.03D+00  6.57D-01  9.07D-01  8.97D-01
                    CP:  7.58D-01  7.92D-01
 E= -686.661378876539     Delta-E=       -0.000000008824 Rises=F Damp=F
 DIIS: error= 9.87D-07 at cycle   8 NSaved=   8.
 NSaved= 8 IEnMin= 8 EnMin= -686.661378876539     IErMin= 8 ErrMin= 9.87D-07
 ErrMax= 9.87D-07  0.00D+00 EMaxC= 1.00D-01 BMatC= 1.07D-09 BMatP= 1.21D-08
 IDIUse=1 WtCom= 1.00D+00 WtEn= 0.00D+00
 Coeff-Com:  0.740D-04-0.143D-02-0.683D-03 0.115D-02 0.309D-01 0.749D-01
 Coeff-Com:  0.265D+00 0.630D+00
 Coeff:      0.740D-04-0.143D-02-0.683D-03 0.115D-02 0.309D-01 0.749D-01
 Coeff:      0.265D+00 0.630D+00
 Gap=     0.279 Goal=   None    Shift=    0.000
 RMSDP=2.82D-07 MaxDP=2.77D-05 DE=-8.82D-09 OVMax= 5.29D-06

 Cycle   9  Pass 1  IDiag  1:
 RMSU=  1.95D-07    CP:  9.81D-01  1.03D+00  6.57D-01  9.07D-01  8.96D-01
                    CP:  7.67D-01  8.42D-01  8.89D-01
 E= -686.661378877373     Delta-E=       -0.000000000834 Rises=F Damp=F
 DIIS: error= 2.75D-07 at cycle   9 NSaved=   9.
 NSaved= 9 IEnMin= 9 EnMin= -686.661378877373     IErMin= 9 ErrMin= 2.75D-07
 ErrMax= 2.75D-07  0.00D+00 EMaxC= 1.00D-01 BMatC= 7.58D-11 BMatP= 1.07D-09
 IDIUse=1 WtCom= 1.00D+00 WtEn= 0.00D+00
 Coeff-Com:  0.108D-04-0.123D-03-0.215D-03-0.644D-03-0.233D-02-0.689D-03
 Coeff-Com:  0.527D-01 0.256D+00 0.696D+00
 Coeff:      0.108D-04-0.123D-03-0.215D-03-0.644D-03-0.233D-02-0.689D-03
 Coeff:      0.527D-01 0.256D+00 0.696D+00
 Gap=     0.279 Goal=   None    Shift=    0.000
 RMSDP=8.67D-08 MaxDP=7.14D-06 DE=-8.34D-10 OVMax= 1.76D-06

 Cycle  10  Pass 1  IDiag  1:
 RMSU=  6.30D-08    CP:  9.81D-01  1.03D+00  6.57D-01  9.07D-01  8.96D-01
                    CP:  7.68D-01  8.63D-01  9.17D-01  9.11D-01
 E= -686.661378877439     Delta-E=       -0.000000000065 Rises=F Damp=F
 DIIS: error= 1.09D-07 at cycle  10 NSaved=  10.
 NSaved=10 IEnMin=10 EnMin= -686.661378877439     IErMin=10 ErrMin= 1.09D-07
 ErrMax= 1.09D-07  0.00D+00 EMaxC= 1.00D-01 BMatC= 1.23D-11 BMatP= 7.58D-11
 IDIUse=1 WtCom= 1.00D+00 WtEn= 0.00D+00
 Coeff-Com: -0.139D-05 0.722D-04-0.372D-04-0.406D-03-0.401D-02-0.730D-02
 Coeff-Com:  0.170D-02 0.741D-01 0.353D+00 0.583D+00
 Coeff:     -0.139D-05 0.722D-04-0.372D-04-0.406D-03-0.401D-02-0.730D-02
 Coeff:      0.170D-02 0.741D-01 0.353D+00 0.583D+00
 Gap=     0.279 Goal=   None    Shift=    0.000
 RMSDP=3.39D-08 MaxDP=3.18D-06 DE=-6.55D-11 OVMax= 5.89D-07

 Cycle  11  Pass 1  IDiag  1:
 RMSU=  2.35D-08    CP:  9.81D-01  1.03D+00  6.57D-01  9.07D-01  8.96D-01
                    CP:  7.68D-01  8.65D-01  9.31D-01  9.25D-01  9.47D-01
 E= -686.661378877447     Delta-E=       -0.000000000008 Rises=F Damp=F
 DIIS: error= 2.97D-08 at cycle  11 NSaved=  11.
 NSaved=11 IEnMin=11 EnMin= -686.661378877447     IErMin=11 ErrMin= 2.97D-08
 ErrMax= 2.97D-08  0.00D+00 EMaxC= 1.00D-01 BMatC= 8.98D-13 BMatP= 1.23D-11
 IDIUse=1 WtCom= 1.00D+00 WtEn= 0.00D+00
 Coeff-Com: -0.134D-05 0.405D-04-0.256D-05-0.141D-03-0.165D-02-0.325D-02
 Coeff-Com: -0.347D-02 0.150D-01 0.107D+00 0.280D+00 0.606D+00
 Coeff:     -0.134D-05 0.405D-04-0.256D-05-0.141D-03-0.165D-02-0.325D-02
 Coeff:     -0.347D-02 0.150D-01 0.107D+00 0.280D+00 0.606D+00
 Gap=     0.279 Goal=   None    Shift=    0.000
 RMSDP=8.64D-09 MaxDP=3.39D-07 DE=-7.73D-12 OVMax= 1.47D-07

 SCF Done:  E(RPBE1PBE) =  -686.661378877     A.U. after   11 cycles
            NFock= 11  Conv=0.86D-08     -V/T= 2.0032
 KE= 6.844718022182D+02 PE=-3.271007291230D+03 EE= 1.071018383897D+03
 Leave Link  502 at Fri Nov  1 11:02:28 2024, MaxMem=  4294967296 cpu:             450.2 elap:              16.1
 (Enter /home/matma/Software/gaussian16.B01_files/AVX2/tar//g16/l701.exe)
 ... and contract with generalized density number  0.
 Compute integral first derivatives.
 R6Disp: Adding Grimme-D3 dispersion energy 1st derivatives to the gradient.
 Leave Link  701 at Fri Nov  1 11:02:29 2024, MaxMem=  4294967296 cpu:               3.8 elap:               0.2
 (Enter /home/matma/Software/gaussian16.B01_files/AVX2/tar//g16/l702.exe)
 L702 exits ... SP integral derivatives will be done elsewhere.
 Leave Link  702 at Fri Nov  1 11:02:29 2024, MaxMem=  4294967296 cpu:               0.4 elap:               0.0
 (Enter /home/matma/Software/gaussian16.B01_files/AVX2/tar//g16/l703.exe)
 Integral derivatives from FoFJK, PRISM(SPDF).
 Compute integral first derivatives, UseDBF=F ICtDFT=           0.
 Calling FoFJK, ICntrl=      2127 FMM=F ISym2X=0 I1Cent= 0 IOpClX= 0 NMat=1 NMatS=1 NMatT=0.
 FoFJK:  IHMeth= 1 ICntrl=    2127 DoSepK=F KAlg= 0 I1Cent=           0 FoldK=F
 IRaf=         0 NMat=       1 IRICut=       1 DoRegI=T DoRafI=F ISym2E= 0 IDoP0=0 IntGTp=1.
 FoFCou: FMM=F IPFlag=           0 FMFlag=      100000 FMFlg1=         800
         NFxFlg=           0 DoJE=F BraDBF=F KetDBF=F FulRan=T
         wScrn=  0.000000 ICntrl=      2127 IOpCl=  0 I1Cent=           0 NGrid=           0
         NMat0=    1 NMatS0=      1 NMatT0=    0 NMatD0=    1 NMtDS0=    0 NMtDT0=    0
 Symmetry not used in FoFCou.
 Leave Link  703 at Fri Nov  1 11:02:33 2024, MaxMem=  4294967296 cpu:             126.7 elap:               4.5
 (Enter /home/matma/Software/gaussian16.B01_files/AVX2/tar//g16/l716.exe)
 Dipole        = 3.04382406D-01 9.46988119D-01-1.42314023D-01
 ***** Axes restored to original set *****
 -------------------------------------------------------------------
 Center     Atomic                   Forces (Hartrees/Bohr)
 Number     Number              X              Y              Z
 -------------------------------------------------------------------
      1        8          -0.000688822   -0.000500555    0.000980545
      2        8          -0.000719514   -0.000020620    0.000383016
      3        8          -0.002504907   -0.002516357    0.000770166
      4        8          -0.000007063   -0.004858805    0.006166612
      5        8           0.000197512    0.001282694   -0.000007837
      6        8          -0.000258867    0.000081434   -0.000041855
      7        6          -0.000190699   -0.000341378   -0.001156447
      8        6           0.003098973   -0.000432248    0.001597320
      9        6           0.000019320    0.000341136    0.000363722
     10        6          -0.002240893    0.003914626   -0.004517462
     11        6          -0.002870778   -0.000431944    0.000289917
     12        6           0.000004759    0.000779723   -0.000063410
     13        1          -0.000015300    0.000053313    0.000166265
     14        1           0.000488841    0.001078953   -0.001059905
     15        1          -0.000002022   -0.000101696   -0.000066459
     16        1           0.003104326   -0.000517246   -0.002145211
     17        1          -0.000196775    0.000505652    0.000120927
     18        1           0.000109399   -0.000310554    0.000060703
     19        1           0.000080867   -0.000036071    0.000032224
     20        1           0.000259636   -0.000157835    0.000364677
     21        1           0.000963856    0.000567580   -0.000024332
     22        1           0.001597422    0.001539705   -0.001805982
     23        1          -0.000233181    0.000277189   -0.000260190
     24        1           0.000003911   -0.000196697   -0.000147003
 -------------------------------------------------------------------
 Cartesian Forces:  Max     0.006166612 RMS     0.001538096
 Leave Link  716 at Fri Nov  1 11:02:33 2024, MaxMem=  4294967296 cpu:               0.4 elap:               0.0
 (Enter /home/matma/Software/gaussian16.B01_files/AVX2/tar//g16/l103.exe)

 GradGradGradGradGradGradGradGradGradGradGradGradGradGradGradGradGradGrad
 Berny optimization.
 Using GEDIIS/GDIIS optimizer.
 FormGI is forming the generalized inverse of G from B-inverse, IUseBI=4.
 Internal  Forces:  Max     0.005006935 RMS     0.000872474
 Search for a local minimum.
 Step number   7 out of a maximum of  142
 All quantities printed in internal units (Hartrees-Bohrs-Radians)
 RMS Force = .87247D-03 SwitMx=.10000D-02 MixMth= 2
 Mixed Optimization -- En-DIIS/RFO-DIIS
 Update second derivatives using D2CorX and points    6    7
 DE= -2.85D-03 DEPred=-4.96D-03 R= 5.75D-01
 TightC=F SS=  1.41D+00  RLast= 9.34D-01 DXNew= 2.4000D+00 2.8013D+00
 Trust test= 5.75D-01 RLast= 9.34D-01 DXMaxT set to 2.40D+00
 ITU=  1  0  1  0  1  1  0
 Use linear search instead of GDIIS.
     Eigenvalues ---   -0.00125   0.00091   0.00310   0.00341   0.00440
     Eigenvalues ---    0.00556   0.00729   0.00778   0.00867   0.02330
     Eigenvalues ---    0.02408   0.03545   0.04041   0.04643   0.04812
     Eigenvalues ---    0.05065   0.05316   0.05630   0.05776   0.05993
     Eigenvalues ---    0.06254   0.06664   0.06749   0.06925   0.07065
     Eigenvalues ---    0.08516   0.09479   0.09746   0.10716   0.12196
     Eigenvalues ---    0.13917   0.14559   0.15539   0.15824   0.16492
     Eigenvalues ---    0.17150   0.17302   0.17814   0.19554   0.19987
     Eigenvalues ---    0.20544   0.23865   0.24081   0.24345   0.26131
     Eigenvalues ---    0.27809   0.28790   0.29845   0.31159   0.31570
     Eigenvalues ---    0.32791   0.33051   0.33253   0.33447   0.33837
     Eigenvalues ---    0.34310   0.34854   0.36411   0.37218   0.39156
     Eigenvalues ---    0.39774   0.49542   0.49727   0.49838   0.49916
     Eigenvalues ---    0.50222
 Eigenvalue     1 is  -1.25D-03 should be greater than     0.000000 Eigenvector:
                          D13       D15       D14       D16       D18
   1                   -0.56014  -0.53010  -0.52484  -0.13584  -0.12508
                          D17       A27       D42       D45       D46
   1                   -0.11567   0.09564  -0.09515  -0.09072   0.06259
 RFO step:  Lambda=-2.92369047D-03 EMin=-1.24637405D-03
 Quartic linear search produced a step of -0.08639.
 Iteration  1 RMS(Cart)=  0.04723663 RMS(Int)=  0.05546796
 Iteration  2 RMS(Cart)=  0.02883048 RMS(Int)=  0.02544651
 Iteration  3 RMS(Cart)=  0.02384200 RMS(Int)=  0.00211451
 Iteration  4 RMS(Cart)=  0.00203199 RMS(Int)=  0.00044492
 Iteration  5 RMS(Cart)=  0.00000919 RMS(Int)=  0.00044488
 Iteration  6 RMS(Cart)=  0.00000000 RMS(Int)=  0.00044488
 ITry= 1 IFail=0 DXMaxC= 6.41D-01 DCOld= 1.00D+10 DXMaxT= 2.40D+00 DXLimC= 3.00D+00 Rises=F
 Variable       Old X    -DE/DX   Delta X   Delta X   Delta X     New X
                                 (Linear)    (Quad)   (Total)
    R1        2.67811  -0.00059   0.00097  -0.01411  -0.01314   2.66497
    R2        2.68803   0.00055  -0.00051   0.01317   0.01273   2.70076
    R3        2.67861   0.00006  -0.00052   0.00384   0.00332   2.68193
    R4        1.81924  -0.00042  -0.00016   0.00064   0.00049   1.81972
    R5        2.66672   0.00056   0.00150  -0.04045  -0.03895   2.62777
    R6        1.82024  -0.00091  -0.00037   0.00084   0.00047   1.82071
    R7        2.65662  -0.00104   0.00174  -0.06088  -0.05914   2.59748
    R8        1.82086  -0.00067  -0.00087   0.00825   0.00738   1.82823
    R9        2.59302   0.00133   0.00032  -0.00191  -0.00158   2.59144
   R10        1.81751  -0.00033   0.00002  -0.00137  -0.00135   1.81617
   R11        2.65571   0.00011  -0.00004   0.00040   0.00036   2.65607
   R12        1.81860  -0.00019  -0.00004   0.00018   0.00013   1.81873
   R13        2.86558   0.00113   0.00031   0.01950   0.01968   2.88526
   R14        2.88364   0.00004   0.00091  -0.00828  -0.00776   2.87588
   R15        2.06912   0.00016   0.00013  -0.00077  -0.00064   2.06848
   R16        2.86630   0.00084  -0.00089   0.02723   0.02638   2.89269
   R17        2.08541   0.00104  -0.00027   0.02001   0.01974   2.10514
   R18        2.86210  -0.00002  -0.00018   0.00118   0.00100   2.86310
   R19        2.09020   0.00006  -0.00009   0.00223   0.00214   2.09234
   R20        2.87638   0.00324  -0.00001   0.03307   0.03345   2.90983
   R21        2.09245  -0.00206   0.00054  -0.02667  -0.02613   2.06632
   R22        2.07702  -0.00009   0.00011   0.00001   0.00012   2.07715
   R23        2.07932   0.00007   0.00001   0.00055   0.00056   2.07988
   R24        2.06334  -0.00002   0.00008  -0.00085  -0.00076   2.06257
    A1        2.00403  -0.00010  -0.00135  -0.01805  -0.02016   1.98387
    A2        1.89450   0.00011   0.00081  -0.00881  -0.00799   1.88651
    A3        1.87778   0.00097   0.00196  -0.02415  -0.02219   1.85559
    A4        1.84312   0.00501   0.00383   0.03947   0.04330   1.88642
    A5        1.89940   0.00041   0.00003   0.00973   0.00976   1.90916
    A6        1.86629  -0.00010   0.00019  -0.00413  -0.00394   1.86235
    A7        1.92470   0.00035   0.00168  -0.01173  -0.01002   1.91468
    A8        1.97158  -0.00046   0.00087  -0.01167  -0.01080   1.96078
    A9        1.84437  -0.00012   0.00020  -0.00552  -0.00566   1.83871
   A10        1.89695   0.00067  -0.00123   0.04957   0.04811   1.94507
   A11        1.91089  -0.00037  -0.00039  -0.02489  -0.02556   1.88533
   A12        1.91445  -0.00011  -0.00117   0.00130   0.00044   1.91489
   A13        1.97211  -0.00184   0.00106  -0.04445  -0.04333   1.92878
   A14        1.86203   0.00186   0.00037   0.06653   0.06682   1.92885
   A15        1.91073   0.00031  -0.00145   0.04534   0.04258   1.95331
   A16        1.94718  -0.00012  -0.00252  -0.00492  -0.00759   1.93960
   A17        1.88222   0.00082   0.00297  -0.04380  -0.04086   1.84137
   A18        1.88799  -0.00103  -0.00058  -0.01605  -0.01831   1.86968
   A19        1.92300   0.00037   0.00005  -0.00253  -0.00262   1.92038
   A20        1.85221  -0.00031   0.00018  -0.00069  -0.00033   1.85188
   A21        1.90579   0.00003  -0.00029   0.00411   0.00374   1.90952
   A22        1.98171   0.00002   0.00011  -0.00089  -0.00069   1.98101
   A23        1.90485  -0.00014  -0.00020   0.00416   0.00392   1.90877
   A24        1.89461   0.00003   0.00014  -0.00411  -0.00397   1.89063
   A25        1.93994  -0.00045   0.00161   0.02971   0.03000   1.96995
   A26        1.88337   0.00279   0.00454   0.04526   0.04866   1.93203
   A27        1.96969  -0.00213   0.00146  -0.13317  -0.13109   1.83860
   A28        1.90958  -0.00058  -0.00389   0.00712   0.00233   1.91192
   A29        1.88997   0.00026  -0.00107   0.01408   0.01215   1.90212
   A30        1.86945   0.00015  -0.00320   0.04017   0.03764   1.90709
   A31        1.89107  -0.00044   0.00111   0.00581   0.00688   1.89795
   A32        1.88837   0.00007  -0.00391   0.02401   0.02071   1.90908
   A33        1.91831   0.00002  -0.00077  -0.00971  -0.01086   1.90745
   A34        1.98268   0.00073   0.00193  -0.00959  -0.00821   1.97447
   A35        1.86362  -0.00067  -0.00001  -0.00618  -0.00610   1.85752
   A36        1.91931   0.00028   0.00161  -0.00504  -0.00333   1.91598
   A37        1.94324   0.00026   0.00031  -0.00137  -0.00106   1.94218
   A38        1.94487   0.00019   0.00051  -0.00203  -0.00152   1.94335
   A39        1.87697  -0.00012   0.00002  -0.00025  -0.00022   1.87675
   A40        1.89262  -0.00020   0.00010  -0.00209  -0.00198   1.89063
   A41        1.91733  -0.00010  -0.00056   0.00396   0.00340   1.92074
   A42        1.88806  -0.00003  -0.00044   0.00202   0.00158   1.88964
    D1        1.07645   0.00014  -0.00036   0.00632   0.00581   1.08226
    D2       -3.05448   0.00019  -0.00008   0.00332   0.00323  -3.05126
    D3       -1.01542   0.00007   0.00004   0.00020   0.00026  -1.01516
    D4        3.03993  -0.00097  -0.00678  -0.02490  -0.03219   3.00773
    D5       -1.08649  -0.00031  -0.00617  -0.01823  -0.02485  -1.11134
    D6        1.00951   0.00008  -0.00696  -0.01546  -0.02281   0.98670
    D7       -1.23627  -0.00025  -0.00056  -0.01768  -0.01813  -1.25440
    D8        0.89020   0.00055  -0.00029   0.02962   0.02911   0.91932
    D9        2.98340   0.00008  -0.00110   0.02101   0.02001   3.00341
   D10        0.80915   0.00024   0.00394  -0.00031   0.00368   0.81282
   D11        2.95519   0.00022   0.00170   0.01198   0.01192   2.96711
   D12       -1.28888   0.00018   0.00047   0.05285   0.05503  -1.23385
   D13       -0.90389   0.00101   0.02617   0.57668   0.60328  -0.30061
   D14       -2.99773   0.00023   0.02702   0.52158   0.54696  -2.45077
   D15        1.22336  -0.00051   0.02706   0.52131   0.54958   1.77293
   D16        1.30239   0.00016   0.00055   0.05768   0.05852   1.36091
   D17       -0.79654  -0.00008   0.00349   0.02939   0.03272  -0.76382
   D18       -2.91531  -0.00042   0.00021   0.04596   0.04604  -2.86927
   D19       -0.94412   0.00005   0.00247   0.00511   0.00758  -0.93654
   D20        1.17139   0.00010   0.00318   0.00008   0.00326   1.17465
   D21       -3.04537   0.00010   0.00295   0.00123   0.00417  -3.04119
   D22       -1.07979   0.00069   0.00460  -0.00163   0.00250  -1.07729
   D23        3.10540  -0.00032   0.00521  -0.05291  -0.04756   3.05784
   D24        1.03447   0.00049   0.00558  -0.00298   0.00276   1.03723
   D25        3.03334   0.00058   0.00323  -0.01285  -0.01025   3.02309
   D26        0.93535  -0.00043   0.00384  -0.06413  -0.06031   0.87504
   D27       -1.13559   0.00038   0.00421  -0.01420  -0.00998  -1.14557
   D28        0.94243   0.00053   0.00559  -0.02950  -0.02406   0.91837
   D29       -1.15556  -0.00049   0.00619  -0.08079  -0.07413  -1.22969
   D30        3.05669   0.00033   0.00657  -0.03086  -0.02380   3.03289
   D31       -3.09291  -0.00048   0.00013  -0.00432  -0.00403  -3.09694
   D32        1.11554  -0.00036  -0.00021  -0.00109  -0.00132   1.11422
   D33       -1.00046  -0.00031  -0.00032   0.00177   0.00141  -0.99906
   D34       -0.95089   0.00014   0.00198   0.00855   0.01080  -0.94009
   D35       -3.02563   0.00027   0.00164   0.01178   0.01351  -3.01212
   D36        1.14155   0.00031   0.00153   0.01465   0.01624   1.15779
   D37        1.13780   0.00003   0.00012   0.00902   0.00941   1.14721
   D38       -0.93694   0.00016  -0.00022   0.01225   0.01211  -0.92482
   D39       -3.05295   0.00020  -0.00033   0.01511   0.01484  -3.03810
   D40        1.07293  -0.00088  -0.01496   0.02505   0.00976   1.08269
   D41       -3.13204   0.00192  -0.01090   0.10399   0.09284  -3.03921
   D42       -1.10006   0.00193  -0.01714   0.16358   0.14653  -0.95353
   D43       -3.04872  -0.00200  -0.01496   0.01170  -0.00375  -3.05248
   D44       -0.97051   0.00081  -0.01090   0.09064   0.07932  -0.89119
   D45        1.06147   0.00082  -0.01714   0.15023   0.13302   1.19448
   D46       -0.98123  -0.00170  -0.01316  -0.05493  -0.06820  -1.04943
   D47        1.09698   0.00110  -0.00910   0.02401   0.01488   1.11186
   D48        3.12896   0.00111  -0.01534   0.08360   0.06858  -3.08565
   D49        1.07353   0.00002   0.00129   0.00158   0.00287   1.07640
   D50       -1.07222  -0.00025   0.00037   0.00644   0.00681  -1.06542
   D51       -3.13235  -0.00004   0.00116   0.00297   0.00412  -3.12822
   D52       -3.09475   0.00027   0.00154  -0.00258  -0.00103  -3.09579
   D53        1.04268   0.00000   0.00062   0.00229   0.00290   1.04559
   D54       -1.01744   0.00022   0.00141  -0.00118   0.00022  -1.01722
   D55       -0.97302   0.00013   0.00146  -0.00081   0.00066  -0.97235
   D56       -3.11877  -0.00014   0.00054   0.00405   0.00460  -3.11417
   D57        1.10429   0.00008   0.00133   0.00058   0.00192   1.10621
   D58        3.10667   0.00079   0.01402   0.04574   0.05976  -3.11676
   D59       -1.07605   0.00074   0.01387   0.06374   0.07777  -0.99829
   D60        1.01130   0.00056   0.01640   0.04588   0.06231   1.07361
   D61        0.99379  -0.00001   0.01172  -0.02193  -0.01073   0.98306
   D62        3.09425  -0.00006   0.01157  -0.00393   0.00728   3.10153
   D63       -1.10158  -0.00024   0.01410  -0.02179  -0.00817  -1.10976
   D64       -1.05115  -0.00010   0.01642  -0.06460  -0.04840  -1.09956
   D65        1.04931  -0.00015   0.01627  -0.04660  -0.03039   1.01892
   D66        3.13666  -0.00032   0.01880  -0.06446  -0.04585   3.09081
         Item               Value     Threshold  Converged?
 Maximum Force            0.005007     0.000450     NO 
 RMS     Force            0.000872     0.000300     NO 
 Maximum Displacement     0.641461     0.001800     NO 
 RMS     Displacement     0.078031     0.001200     NO 
 Predicted change in Energy=-2.999649D-03
 Lowest energy point so far.  Saving SCF results.
 GradGradGradGradGradGradGradGradGradGradGradGradGradGradGradGradGradGrad

 Leave Link  103 at Fri Nov  1 11:02:33 2024, MaxMem=  4294967296 cpu:               0.7 elap:               0.0
 (Enter /home/matma/Software/gaussian16.B01_files/AVX2/tar//g16/l202.exe)
                          Input orientation:                          
 ---------------------------------------------------------------------
 Center     Atomic      Atomic             Coordinates (Angstroms)
 Number     Number       Type             X           Y           Z
 ---------------------------------------------------------------------
      1          8           0       -0.677060    1.145934    0.254721
      2          8           0       -0.832730   -2.465561   -0.345588
      3          8           0        1.916685   -2.025119    0.195027
      4          8           0        2.865204    0.632318   -0.357676
      5          8           0        0.976365    2.702919    0.097513
      6          8           0       -3.425944    0.937098   -0.070698
      7          6           0       -0.346822   -1.232583    0.162188
      8          6           0        1.093380   -1.018417   -0.297284
      9          6           0       -1.234363   -0.058030   -0.223467
     10          6           0        1.611173    0.356383    0.132829
     11          6           0        0.607637    1.442343   -0.296868
     12          6           0       -2.629490   -0.137094    0.362080
     13          1           0       -0.341240   -1.349458    1.250509
     14          1           0        1.054177   -1.020576   -1.410585
     15          1           0       -1.321825   -0.010513   -1.326204
     16          1           0        1.716179    0.372404    1.221104
     17          1           0        0.534766    1.468523   -1.393317
     18          1           0       -2.543768   -0.155720    1.459202
     19          1           0       -3.118229   -1.058826    0.041383
     20          1           0       -0.972614   -2.364434   -1.292948
     21          1           0        1.456966   -2.855636    0.030138
     22          1           0        3.266121   -0.200703   -0.642841
     23          1           0        1.288124    2.674500    1.006173
     24          1           0       -2.940892    1.742149    0.136410
 ---------------------------------------------------------------------
                    Distance matrix (angstroms):
                    1          2          3          4          5
     1  O    0.000000
     2  O    3.664355   0.000000
     3  O    4.097152   2.836466   0.000000
     4  O    3.631318   4.824076   2.875263   0.000000
     5  O    2.276562   5.493846   4.821623   2.839418   0.000000
     6  O    2.775945   4.287005   6.114657   6.305060   4.746235
     7  C    2.403115   1.419217   2.398469   3.750363   4.152491
     8  C    2.850190   2.409660   1.390557   2.422381   3.744048
     9  C    1.410241   2.443854   3.738138   4.159452   3.551505
    10  C    2.423687   3.763630   2.401824   1.374529   2.431143
    11  C    1.429181   4.165182   3.738831   2.399259   1.371331
    12  C    2.338732   3.025045   4.925470   5.594793   4.597593
    13  H    2.707647   2.008675   2.582399   4.098168   4.414436
    14  H    3.234841   2.604346   2.081110   2.668425   4.018063
    15  H    2.062139   2.688509   4.106182   4.345399   3.830322
    16  H    2.694409   4.123774   2.615560   1.969863   2.690925
    17  H    2.070897   4.294740   4.078979   2.683791   1.985275
    18  H    2.574815   3.394155   4.998844   5.760124   4.734697
    19  H    3.296329   2.711485   5.129102   6.230624   5.560537
    20  H    3.847768   0.962956   3.267607   4.958236   5.604460
    21  H    4.540602   2.352878   0.963478   3.781449   5.579700
    22  H    4.262362   4.692390   2.418986   0.967459   3.771224
    23  H    2.600605   5.722369   4.810350   2.918522   0.961075
    24  H    2.344014   4.730908   6.147503   5.931829   4.033547
                    6          7          8          9         10
     6  O    0.000000
     7  C    3.773956   0.000000
     8  C    4.929470   1.526815   0.000000
     9  C    2.411773   1.521852   2.519162   0.000000
    10  C    5.074564   2.521788   1.530745   2.897543   0.000000
    11  C    4.071388   2.876969   2.508244   2.376862   1.539815
    12  C    1.405533   2.539809   3.882171   1.515090   4.275429
    13  H    4.060705   1.094594   2.136209   2.153616   2.823299
    14  H    5.069445   2.116922   1.113994   2.751937   2.142052
    15  H    2.627085   2.158564   2.812075   1.107220   3.296342
    16  H    5.331891   2.820153   2.151224   3.313270   1.093447
    17  H    4.209389   3.239254   2.774565   2.613184   2.173621
    18  H    2.076795   2.769198   4.130174   2.134353   4.391475
    19  H    2.022613   2.779475   4.225397   2.149579   4.937450
    20  H    4.291018   1.946824   2.659219   2.555738   4.013931
    21  H    6.183673   2.430100   1.901256   3.890265   3.217358
    22  H    6.812171   3.842682   2.347098   4.522233   1.910723
    23  H    5.138157   4.318641   3.921041   3.916846   2.498151
    24  H    0.962432   3.947011   4.907562   2.506471   4.758325
                   11         12         13         14         15
    11  C    0.000000
    12  C    3.661670   0.000000
    13  H    3.330000   2.737741   0.000000
    14  H    2.739659   4.182378   3.022710   0.000000
    15  H    2.625481   2.139232   3.064927   2.583164   0.000000
    16  H    2.162839   4.458963   2.683030   3.050317   3.983074
    17  H    1.099180   3.958780   3.962098   2.542774   2.374654
    18  H    3.945750   1.100623   2.513901   4.682827   3.045114
    19  H    4.500260   1.091468   3.042716   4.417991   2.489241
    20  H    4.240392   3.231934   2.810335   2.434682   2.379916
    21  H    4.393281   4.919327   2.644130   2.367566   4.201913
    22  H    3.144334   5.980982   4.232903   2.480790   4.642458
    23  H    1.918121   4.864938   4.348191   4.421429   4.411475
    24  H    3.587433   1.918190   4.190160   5.097688   2.798650
                   16         17         18         19         20
    16  H    0.000000
    17  H    3.071223   0.000000
    18  H    4.299158   4.500266   0.000000
    19  H    5.177998   4.668000   1.776461   0.000000
    20  H    4.586976   4.119931   3.862806   2.844066   0.000000
    21  H    3.450484   4.644893   5.033651   4.915390   2.809750
    22  H    2.490997   3.287831   6.178627   6.477998   4.803254
    23  H    2.351397   2.789172   4.785267   5.855296   5.982287
    24  H    4.974040   3.807247   2.347209   2.808191   4.772966
                   21         22         23         24
    21  H    0.000000
    22  H    3.282471   0.000000
    23  H    5.618145   3.859859   0.000000
    24  H    6.363338   6.550490   4.417052   0.000000
 Stoichiometry    C6H12O6
 Framework group  C1[X(C6H12O6)]
 Deg. of freedom    66
 Full point group                 C1      NOp   1
 RotChk:  IX=0 Diff= 2.42D-02
 Largest Abelian subgroup         C1      NOp   1
 Largest concise Abelian subgroup C1      NOp   1
                         Standard orientation:                         
 ---------------------------------------------------------------------
 Center     Atomic      Atomic             Coordinates (Angstroms)
 Number     Number       Type             X           Y           Z
 ---------------------------------------------------------------------
      1          8           0       -0.716744   -1.124015   -0.227254
      2          8           0       -0.730883    2.510550    0.238837
      3          8           0        1.982219    1.955045   -0.374373
      4          8           0        2.859544   -0.711321    0.248470
      5          8           0        0.888036   -2.730565   -0.064743
      6          8           0       -3.444404   -0.807844    0.179903
      7          6           0       -0.304112    1.243390   -0.236925
      8          6           0        1.142941    0.996575    0.182938
      9          6           0       -1.216808    0.115548    0.222414
     10          6           0        1.599460   -0.410440   -0.210864
     11          6           0        0.575369   -1.444135    0.292866
     12          6           0       -2.627657    0.221177   -0.319659
     13          1           0       -0.331726    1.319407   -1.328526
     14          1           0        1.141808    1.041535    1.296024
     15          1           0       -1.268168    0.112179    1.328437
     16          1           0        1.666710   -0.470599   -1.300582
     17          1           0        0.539083   -1.426935    1.391312
     18          1           0       -2.578812    0.195961   -1.418909
     19          1           0       -3.074052    1.170629   -0.018704
     20          1           0       -0.841696    2.449679    1.193457
     21          1           0        1.556446    2.806593   -0.226479
     22          1           0        3.297609    0.117307    0.488160
     23          1           0        1.169413   -2.746838   -0.983561
     24          1           0       -2.993914   -1.636410   -0.011963
 ---------------------------------------------------------------------
 Rotational constants (GHZ):           1.1680630           0.7954294           0.4950892
 Leave Link  202 at Fri Nov  1 11:02:33 2024, MaxMem=  4294967296 cpu:               0.1 elap:               0.0
 (Enter /home/matma/Software/gaussian16.B01_files/AVX2/tar//g16/l301.exe)
 Standard basis: 6-311+G(d,p) (5D, 7F)
 Ernie: Thresh=  0.10000D-02 Tol=  0.10000D-05 Strict=F.
 There are   348 symmetry adapted cartesian basis functions of A   symmetry.
 There are   336 symmetry adapted basis functions of A   symmetry.
   336 basis functions,   528 primitive gaussians,   348 cartesian basis functions
    48 alpha electrons       48 beta electrons
       nuclear repulsion energy       828.1692737764 Hartrees.
 IExCor= 1009 DFT=T Ex+Corr=PBE1PBE ExCW=0 ScaHFX=  0.250000
 ScaDFX=  0.750000  0.750000  1.000000  1.000000 ScalE2=  1.000000  1.000000
 IRadAn=  99590 IRanWt=     -1 IRanGd=            0 ICorTp=0 IEmpDi=131
 NAtoms=   24 NActive=   24 NUniq=   24 SFac= 1.00D+00 NAtFMM=   60 NAOKFM=F Big=F
 Integral buffers will be    131072 words long.
 Raffenetti 2 integral format.
 Two-electron integral symmetry is turned on.
 R6Disp:  Grimme-D3 Dispersion energy=       -0.0156612920 Hartrees.
 Nuclear repulsion after empirical dispersion term =      828.1536124844 Hartrees.
 Leave Link  301 at Fri Nov  1 11:02:33 2024, MaxMem=  4294967296 cpu:               0.8 elap:               0.0
 (Enter /home/matma/Software/gaussian16.B01_files/AVX2/tar//g16/l302.exe)
 NPDir=0 NMtPBC=     1 NCelOv=     1 NCel=       1 NClECP=     1 NCelD=      1
         NCelK=      1 NCelE2=     1 NClLst=     1 CellRange=     0.0.
 One-electron integrals computed using PRISM.
 One-electron integral symmetry used in STVInt
 NBasis=   336 RedAO= T EigKep=  8.52D-06  NBF=   336
 NBsUse=   336 1.00D-06 EigRej= -1.00D+00 NBFU=   336
 Precomputing XC quadrature grid using
 IXCGrd= 4 IRadAn=       99590 IRanWt=          -1 IRanGd=           0 AccXCQ= 0.00D+00.
 Generated NRdTot=       0 NPtTot=           0 NUsed=           0 NTot=          32
 NSgBfM=   348   348   348   348   348 MxSgAt=    24 MxSgA2=    24.
 Leave Link  302 at Fri Nov  1 11:02:34 2024, MaxMem=  4294967296 cpu:               5.3 elap:               0.2
 (Enter /home/matma/Software/gaussian16.B01_files/AVX2/tar//g16/l303.exe)
 DipDrv:  MaxL=1.
 Leave Link  303 at Fri Nov  1 11:02:34 2024, MaxMem=  4294967296 cpu:               0.7 elap:               0.0
 (Enter /home/matma/Software/gaussian16.B01_files/AVX2/tar//g16/l401.exe)
 Initial guess from the checkpoint file:  "input.chk"
 B after Tr=     0.000000   -0.000000    0.000000
         Rot=    0.999997   -0.000972    0.000127   -0.002055 Ang=  -0.26 deg.
 Guess basis will be translated and rotated to current coordinates.
 JPrj=2 DoOrth=T DoCkMO=T.
 Generating alternative initial guess.
 ExpMin= 4.38D-02 ExpMax= 8.59D+03 ExpMxC= 1.30D+03 IAcc=4 IRadAn=    199590 AccDes= 0.00D+00
 Harris functional with IExCor= 1009 and IRadAn=  199590 diagonalized for initial guess.
 HarFok:  IExCor= 1009 AccDes= 0.00D+00 IRadAn=    199590 IDoV= 1 UseB2=F ITyADJ=14
 ICtDFT=  3500011 ScaDFX=  1.000000  1.000000  1.000000  1.000000
 FoFCou: FMM=F IPFlag=           0 FMFlag=      100000 FMFlg1=           0
         NFxFlg=           0 DoJE=T BraDBF=F KetDBF=T FulRan=T
         wScrn=  0.000000 ICntrl=       500 IOpCl=  0 I1Cent=   200000004 NGrid=           0
         NMat0=    1 NMatS0=      1 NMatT0=    0 NMatD0=    1 NMtDS0=    0 NMtDT0=    0
 Petite list used in FoFCou.
 Harris En= -686.787952057193    
 Leave Link  401 at Fri Nov  1 11:02:35 2024, MaxMem=  4294967296 cpu:              40.4 elap:               1.5
 (Enter /home/matma/Software/gaussian16.B01_files/AVX2/tar//g16/l502.exe)
 Integral symmetry usage will be decided dynamically.
 Closed shell SCF:
 Using DIIS extrapolation, IDIIS=  1040.
 NGot=  4294967296 LenX=  4294711890 LenY=  4294590345
 Requested convergence on RMS density matrix=1.00D-08 within 128 cycles.
 Requested convergence on MAX density matrix=1.00D-06.
 Requested convergence on             energy=1.00D-06.
 No special actions if energy rises.
 Fock matrices will be formed incrementally for  20 cycles.

 Cycle   1  Pass 1  IDiag  1:
 FoFJK:  IHMeth= 1 ICntrl=       0 DoSepK=F KAlg= 0 I1Cent=           0 FoldK=F
 IRaf= 920000000 NMat=       1 IRICut=       1 DoRegI=T DoRafI=F ISym2E= 0 IDoP0=0 IntGTp=1.
 FoFCou: FMM=F IPFlag=           0 FMFlag=      100000 FMFlg1=           0
         NFxFlg=           0 DoJE=F BraDBF=F KetDBF=F FulRan=T
         wScrn=  0.000000 ICntrl=         0 IOpCl=  0 I1Cent=           0 NGrid=           0
         NMat0=    1 NMatS0=      1 NMatT0=    0 NMatD0=    1 NMtDS0=    0 NMtDT0=    0
 Symmetry not used in FoFCou.
 E= -686.608065369868    
 DIIS: error= 7.16D-03 at cycle   1 NSaved=   1.
 NSaved= 1 IEnMin= 1 EnMin= -686.608065369868     IErMin= 1 ErrMin= 7.16D-03
 ErrMax= 7.16D-03  0.00D+00 EMaxC= 1.00D-01 BMatC= 3.80D-02 BMatP= 3.80D-02
 IDIUse=3 WtCom= 9.28D-01 WtEn= 7.16D-02
 Coeff-Com:  0.100D+01
 Coeff-En:   0.100D+01
 Coeff:      0.100D+01
 Gap=     0.600 Goal=   None    Shift=    0.000
 GapD=    0.600 DampG=2.000 DampE=1.000 DampFc=2.0000 IDamp=-1.
 RMSDP=3.71D-03 MaxDP=2.46D-01              OVMax= 7.21D-02

 Cycle   2  Pass 1  IDiag  1:
 RMSU=  3.71D-03    CP:  9.92D-01
 E= -686.654281619635     Delta-E=       -0.046216249767 Rises=F Damp=F
 DIIS: error= 3.93D-03 at cycle   2 NSaved=   2.
 NSaved= 2 IEnMin= 2 EnMin= -686.654281619635     IErMin= 2 ErrMin= 3.93D-03
 ErrMax= 3.93D-03  0.00D+00 EMaxC= 1.00D-01 BMatC= 2.93D-03 BMatP= 3.80D-02
 IDIUse=3 WtCom= 9.61D-01 WtEn= 3.93D-02
 Coeff-Com:  0.608D-01 0.939D+00
 Coeff-En:   0.000D+00 0.100D+01
 Coeff:      0.584D-01 0.942D+00
 Gap=     0.283 Goal=   None    Shift=    0.000
 RMSDP=8.58D-04 MaxDP=6.35D-02 DE=-4.62D-02 OVMax= 1.80D-02

 Cycle   3  Pass 1  IDiag  1:
 RMSU=  7.46D-04    CP:  9.82D-01  9.01D-01
 E= -686.653800709795     Delta-E=        0.000480909840 Rises=F Damp=F
 DIIS: error= 4.18D-03 at cycle   3 NSaved=   3.
 NSaved= 3 IEnMin= 2 EnMin= -686.654281619635     IErMin= 2 ErrMin= 3.93D-03
 ErrMax= 4.18D-03  0.00D+00 EMaxC= 1.00D-01 BMatC= 3.94D-03 BMatP= 2.93D-03
 IDIUse=3 WtCom= 1.34D-01 WtEn= 8.66D-01
 Coeff-Com: -0.374D-01 0.553D+00 0.485D+00
 Coeff-En:   0.000D+00 0.550D+00 0.450D+00
 Coeff:     -0.500D-02 0.551D+00 0.454D+00
 Gap=     0.276 Goal=   None    Shift=    0.000
 RMSDP=4.56D-04 MaxDP=3.78D-02 DE= 4.81D-04 OVMax= 1.03D-02

 Cycle   4  Pass 1  IDiag  1:
 RMSU=  1.71D-04    CP:  9.87D-01  9.66D-01  5.58D-01
 E= -686.656421360516     Delta-E=       -0.002620650721 Rises=F Damp=F
 DIIS: error= 2.44D-04 at cycle   4 NSaved=   4.
 NSaved= 4 IEnMin= 4 EnMin= -686.656421360516     IErMin= 4 ErrMin= 2.44D-04
 ErrMax= 2.44D-04  0.00D+00 EMaxC= 1.00D-01 BMatC= 4.11D-05 BMatP= 2.93D-03
 IDIUse=3 WtCom= 9.98D-01 WtEn= 2.44D-03
 Coeff-Com: -0.122D-01 0.108D+00 0.146D+00 0.758D+00
 Coeff-En:   0.000D+00 0.000D+00 0.000D+00 0.100D+01
 Coeff:     -0.121D-01 0.108D+00 0.146D+00 0.759D+00
 Gap=     0.274 Goal=   None    Shift=    0.000
 RMSDP=8.54D-05 MaxDP=7.90D-03 DE=-2.62D-03 OVMax= 1.68D-03

 Cycle   5  Pass 1  IDiag  1:
 RMSU=  6.85D-05    CP:  9.86D-01  9.76D-01  5.41D-01  8.56D-01
 E= -686.656450082353     Delta-E=       -0.000028721837 Rises=F Damp=F
 DIIS: error= 7.82D-05 at cycle   5 NSaved=   5.
 NSaved= 5 IEnMin= 5 EnMin= -686.656450082353     IErMin= 5 ErrMin= 7.82D-05
 ErrMax= 7.82D-05  0.00D+00 EMaxC= 1.00D-01 BMatC= 6.50D-06 BMatP= 4.11D-05
 IDIUse=1 WtCom= 1.00D+00 WtEn= 0.00D+00
 Coeff-Com: -0.360D-02 0.201D-01 0.436D-01 0.361D+00 0.579D+00
 Coeff:     -0.360D-02 0.201D-01 0.436D-01 0.361D+00 0.579D+00
 Gap=     0.275 Goal=   None    Shift=    0.000
 RMSDP=3.02D-05 MaxDP=3.20D-03 DE=-2.87D-05 OVMax= 4.54D-04

 Cycle   6  Pass 1  IDiag  1:
 RMSU=  2.04D-05    CP:  9.87D-01  9.74D-01  5.51D-01  9.10D-01  7.99D-01
 E= -686.656454810848     Delta-E=       -0.000004728495 Rises=F Damp=F
 DIIS: error= 3.67D-05 at cycle   6 NSaved=   6.
 NSaved= 6 IEnMin= 6 EnMin= -686.656454810848     IErMin= 6 ErrMin= 3.67D-05
 ErrMax= 3.67D-05  0.00D+00 EMaxC= 1.00D-01 BMatC= 9.54D-07 BMatP= 6.50D-06
 IDIUse=1 WtCom= 1.00D+00 WtEn= 0.00D+00
 Coeff-Com:  0.683D-04-0.901D-02-0.150D-02 0.746D-01 0.307D+00 0.629D+00
 Coeff:      0.683D-04-0.901D-02-0.150D-02 0.746D-01 0.307D+00 0.629D+00
 Gap=     0.275 Goal=   None    Shift=    0.000
 RMSDP=7.36D-06 MaxDP=9.76D-04 DE=-4.73D-06 OVMax= 1.49D-04

 Cycle   7  Pass 1  IDiag  1:
 RMSU=  4.35D-06    CP:  9.87D-01  9.74D-01  5.54D-01  9.14D-01  8.49D-01
                    CP:  8.83D-01
 E= -686.656455444923     Delta-E=       -0.000000634075 Rises=F Damp=F
 DIIS: error= 8.91D-06 at cycle   7 NSaved=   7.
 NSaved= 7 IEnMin= 7 EnMin= -686.656455444923     IErMin= 7 ErrMin= 8.91D-06
 ErrMax= 8.91D-06  0.00D+00 EMaxC= 1.00D-01 BMatC= 8.49D-08 BMatP= 9.54D-07
 IDIUse=1 WtCom= 1.00D+00 WtEn= 0.00D+00
 Coeff-Com:  0.328D-03-0.701D-02-0.468D-02 0.131D-01 0.123D+00 0.334D+00
 Coeff-Com:  0.542D+00
 Coeff:      0.328D-03-0.701D-02-0.468D-02 0.131D-01 0.123D+00 0.334D+00
 Coeff:      0.542D+00
 Gap=     0.275 Goal=   None    Shift=    0.000
 RMSDP=2.76D-06 MaxDP=4.70D-04 DE=-6.34D-07 OVMax= 4.47D-05

 Cycle   8  Pass 1  IDiag  1:
 RMSU=  2.19D-06    CP:  9.87D-01  9.74D-01  5.54D-01  9.13D-01  8.67D-01
                    CP:  8.58D-01  9.81D-01
 E= -686.656455508645     Delta-E=       -0.000000063721 Rises=F Damp=F
 DIIS: error= 1.42D-06 at cycle   8 NSaved=   8.
 NSaved= 8 IEnMin= 8 EnMin= -686.656455508645     IErMin= 8 ErrMin= 1.42D-06
 ErrMax= 1.42D-06  0.00D+00 EMaxC= 1.00D-01 BMatC= 2.08D-09 BMatP= 8.49D-08
 IDIUse=1 WtCom= 1.00D+00 WtEn= 0.00D+00
 Coeff-Com:  0.111D-03-0.187D-02-0.165D-02-0.656D-03 0.187D-01 0.630D-01
 Coeff-Com:  0.176D+00 0.747D+00
 Coeff:      0.111D-03-0.187D-02-0.165D-02-0.656D-03 0.187D-01 0.630D-01
 Coeff:      0.176D+00 0.747D+00
 Gap=     0.275 Goal=   None    Shift=    0.000
 RMSDP=5.24D-07 MaxDP=2.64D-05 DE=-6.37D-08 OVMax= 1.33D-05

 Cycle   9  Pass 1  IDiag  1:
 RMSU=  4.46D-07    CP:  9.87D-01  9.74D-01  5.54D-01  9.14D-01  8.69D-01
                    CP:  8.66D-01  1.01D+00  9.80D-01
 E= -686.656455510421     Delta-E=       -0.000000001776 Rises=F Damp=F
 DIIS: error= 5.77D-07 at cycle   9 NSaved=   9.
 NSaved= 9 IEnMin= 9 EnMin= -686.656455510421     IErMin= 9 ErrMin= 5.77D-07
 ErrMax= 5.77D-07  0.00D+00 EMaxC= 1.00D-01 BMatC= 2.26D-10 BMatP= 2.08D-09
 IDIUse=1 WtCom= 1.00D+00 WtEn= 0.00D+00
 Coeff-Com:  0.183D-04-0.181D-03-0.264D-03-0.997D-03-0.189D-02-0.134D-02
 Coeff-Com:  0.240D-01 0.288D+00 0.693D+00
 Coeff:      0.183D-04-0.181D-03-0.264D-03-0.997D-03-0.189D-02-0.134D-02
 Coeff:      0.240D-01 0.288D+00 0.693D+00
 Gap=     0.275 Goal=   None    Shift=    0.000
 RMSDP=2.12D-07 MaxDP=1.94D-05 DE=-1.78D-09 OVMax= 3.32D-06

 Cycle  10  Pass 1  IDiag  1:
 RMSU=  1.05D-07    CP:  9.87D-01  9.74D-01  5.54D-01  9.14D-01  8.69D-01
                    CP:  8.70D-01  1.03D+00  1.03D+00  8.82D-01
 E= -686.656455510586     Delta-E=       -0.000000000165 Rises=F Damp=F
 DIIS: error= 2.12D-07 at cycle  10 NSaved=  10.
 NSaved=10 IEnMin=10 EnMin= -686.656455510586     IErMin=10 ErrMin= 2.12D-07
 ErrMax= 2.12D-07  0.00D+00 EMaxC= 1.00D-01 BMatC= 3.81D-11 BMatP= 2.26D-10
 IDIUse=1 WtCom= 1.00D+00 WtEn= 0.00D+00
 Coeff-Com: -0.138D-05 0.888D-04 0.342D-04-0.389D-03-0.266D-02-0.673D-02
 Coeff-Com: -0.487D-02 0.730D-01 0.347D+00 0.595D+00
 Coeff:     -0.138D-05 0.888D-04 0.342D-04-0.389D-03-0.266D-02-0.673D-02
 Coeff:     -0.487D-02 0.730D-01 0.347D+00 0.595D+00
 Gap=     0.275 Goal=   None    Shift=    0.000
 RMSDP=6.59D-08 MaxDP=9.17D-06 DE=-1.65D-10 OVMax= 8.80D-07

 Cycle  11  Pass 1  IDiag  1:
 RMSU=  3.57D-08    CP:  9.87D-01  9.74D-01  5.54D-01  9.14D-01  8.70D-01
                    CP:  8.70D-01  1.04D+00  1.04D+00  9.00D-01  8.67D-01
 E= -686.656455510628     Delta-E=       -0.000000000041 Rises=F Damp=F
 DIIS: error= 4.29D-08 at cycle  11 NSaved=  11.
 NSaved=11 IEnMin=11 EnMin= -686.656455510628     IErMin=11 ErrMin= 4.29D-08
 ErrMax= 4.29D-08  0.00D+00 EMaxC= 1.00D-01 BMatC= 1.95D-12 BMatP= 3.81D-11
 IDIUse=1 WtCom= 1.00D+00 WtEn= 0.00D+00
 Coeff-Com: -0.135D-05 0.457D-04 0.276D-04-0.132D-03-0.105D-02-0.284D-02
 Coeff-Com: -0.337D-02 0.168D-01 0.115D+00 0.268D+00 0.608D+00
 Coeff:     -0.135D-05 0.457D-04 0.276D-04-0.132D-03-0.105D-02-0.284D-02
 Coeff:     -0.337D-02 0.168D-01 0.115D+00 0.268D+00 0.608D+00
 Gap=     0.275 Goal=   None    Shift=    0.000
 RMSDP=1.63D-08 MaxDP=1.46D-06 DE=-4.14D-11 OVMax= 2.00D-07

 Cycle  12  Pass 1  IDiag  1:
 RMSU=  9.29D-09    CP:  9.87D-01  9.74D-01  5.54D-01  9.14D-01  8.70D-01
                    CP:  8.70D-01  1.04D+00  1.04D+00  9.14D-01  8.89D-01
                    CP:  9.17D-01
 E= -686.656455510628     Delta-E=       -0.000000000001 Rises=F Damp=F
 DIIS: error= 1.50D-08 at cycle  12 NSaved=  12.
 NSaved=12 IEnMin=12 EnMin= -686.656455510628     IErMin=12 ErrMin= 1.50D-08
 ErrMax= 1.50D-08  0.00D+00 EMaxC= 1.00D-01 BMatC= 2.01D-13 BMatP= 1.95D-12
 IDIUse=1 WtCom= 1.00D+00 WtEn= 0.00D+00
 Coeff-Com: -0.387D-06 0.934D-05 0.769D-05-0.192D-04-0.164D-03-0.458D-03
 Coeff-Com: -0.871D-03-0.828D-03 0.958D-02 0.484D-01 0.279D+00 0.666D+00
 Coeff:     -0.387D-06 0.934D-05 0.769D-05-0.192D-04-0.164D-03-0.458D-03
 Coeff:     -0.871D-03-0.828D-03 0.958D-02 0.484D-01 0.279D+00 0.666D+00
 Gap=     0.275 Goal=   None    Shift=    0.000
 RMSDP=4.33D-09 MaxDP=2.72D-07 DE=-6.82D-13 OVMax= 6.82D-08

 SCF Done:  E(RPBE1PBE) =  -686.656455511     A.U. after   12 cycles
            NFock= 12  Conv=0.43D-08     -V/T= 2.0031
 KE= 6.845105112772D+02 PE=-3.269519601662D+03 EE= 1.070199022390D+03
 Leave Link  502 at Fri Nov  1 11:02:53 2024, MaxMem=  4294967296 cpu:             485.0 elap:              17.3
 (Enter /home/matma/Software/gaussian16.B01_files/AVX2/tar//g16/l701.exe)
 ... and contract with generalized density number  0.
 Compute integral first derivatives.
 R6Disp: Adding Grimme-D3 dispersion energy 1st derivatives to the gradient.
 Leave Link  701 at Fri Nov  1 11:02:53 2024, MaxMem=  4294967296 cpu:               4.1 elap:               0.2
 (Enter /home/matma/Software/gaussian16.B01_files/AVX2/tar//g16/l702.exe)
 L702 exits ... SP integral derivatives will be done elsewhere.
 Leave Link  702 at Fri Nov  1 11:02:53 2024, MaxMem=  4294967296 cpu:               0.3 elap:               0.0
 (Enter /home/matma/Software/gaussian16.B01_files/AVX2/tar//g16/l703.exe)
 Integral derivatives from FoFJK, PRISM(SPDF).
 Compute integral first derivatives, UseDBF=F ICtDFT=           0.
 Calling FoFJK, ICntrl=      2127 FMM=F ISym2X=0 I1Cent= 0 IOpClX= 0 NMat=1 NMatS=1 NMatT=0.
 FoFJK:  IHMeth= 1 ICntrl=    2127 DoSepK=F KAlg= 0 I1Cent=           0 FoldK=F
 IRaf=         0 NMat=       1 IRICut=       1 DoRegI=T DoRafI=F ISym2E= 0 IDoP0=0 IntGTp=1.
 FoFCou: FMM=F IPFlag=           0 FMFlag=      100000 FMFlg1=         800
         NFxFlg=           0 DoJE=F BraDBF=F KetDBF=F FulRan=T
         wScrn=  0.000000 ICntrl=      2127 IOpCl=  0 I1Cent=           0 NGrid=           0
         NMat0=    1 NMatS0=      1 NMatT0=    0 NMatD0=    1 NMtDS0=    0 NMtDT0=    0
 Symmetry not used in FoFCou.
 Leave Link  703 at Fri Nov  1 11:02:57 2024, MaxMem=  4294967296 cpu:             126.6 elap:               4.5
 (Enter /home/matma/Software/gaussian16.B01_files/AVX2/tar//g16/l716.exe)
 Dipole        = 3.16117605D-01 9.56253703D-01 1.63022369D-01
 ***** Axes restored to original set *****
 -------------------------------------------------------------------
 Center     Atomic                   Forces (Hartrees/Bohr)
 Number     Number              X              Y              Z
 -------------------------------------------------------------------
      1        8           0.007825445    0.002744059    0.000021721
      2        8           0.000805923   -0.000009295   -0.000407536
      3        8           0.008137135   -0.003688292   -0.000589620
      4        8           0.022607385   -0.002505292   -0.022206610
      5        8           0.000015074    0.001330069   -0.000020646
      6        8           0.000321960    0.000219630   -0.000065560
      7        6          -0.000295485   -0.000880058    0.001553366
      8        6          -0.017605369    0.015059950   -0.004501166
      9        6          -0.000086240   -0.001310046   -0.001009733
     10        6          -0.015411304   -0.009363339    0.008494654
     11        6           0.000020124   -0.003832223    0.001780360
     12        6          -0.000348756    0.000288394    0.000456501
     13        1          -0.000824805    0.000598078    0.000722530
     14        1           0.004617949   -0.000967728    0.002394863
     15        1           0.000294973   -0.000129296    0.000061421
     16        1          -0.011010287   -0.001297031    0.008548769
     17        1          -0.000075330   -0.000293620   -0.000305711
     18        1           0.000051254   -0.000487539   -0.000129159
     19        1           0.000144184   -0.000235442   -0.000020042
     20        1          -0.000227238   -0.000790369    0.000351575
     21        1           0.001685193   -0.000978723    0.000623958
     22        1           0.000153542    0.006818664    0.003922289
     23        1          -0.000436172   -0.000388949    0.000510120
     24        1          -0.000359154    0.000098398   -0.000186345
 -------------------------------------------------------------------
 Cartesian Forces:  Max     0.022607385 RMS     0.005815036
 Leave Link  716 at Fri Nov  1 11:02:57 2024, MaxMem=  4294967296 cpu:               0.3 elap:               0.0
 (Enter /home/matma/Software/gaussian16.B01_files/AVX2/tar//g16/l103.exe)

 GradGradGradGradGradGradGradGradGradGradGradGradGradGradGradGradGradGrad
 Berny optimization.
 Using GEDIIS/GDIIS optimizer.
 FormGI is forming the generalized inverse of G from B-inverse, IUseBI=4.
 Internal  Forces:  Max     0.028156286 RMS     0.003305057
 Search for a local minimum.
 Step number   8 out of a maximum of  142
 All quantities printed in internal units (Hartrees-Bohrs-Radians)
 RMS Force = .33051D-02 SwitMx=.10000D-02 MixMth= 1
 Mixed Optimization -- RFO/linear search
 Update second derivatives using D2CorX and points    8    7
 DE=  4.92D-03 DEPred=-3.00D-03 R=-1.64D+00
 Trust test=-1.64D+00 RLast= 1.06D+00 DXMaxT set to 1.20D+00
 ITU= -1  1  0  1  0  1  1  0
 Use linear search instead of GDIIS.
     Eigenvalues ---    0.00094   0.00310   0.00342   0.00448   0.00555
     Eigenvalues ---    0.00634   0.00765   0.00791   0.00959   0.02390
     Eigenvalues ---    0.02425   0.03664   0.04162   0.04656   0.04998
     Eigenvalues ---    0.05150   0.05400   0.05664   0.05836   0.06047
     Eigenvalues ---    0.06313   0.06756   0.06887   0.07045   0.07482
     Eigenvalues ---    0.08551   0.09551   0.10384   0.10750   0.12203
     Eigenvalues ---    0.14058   0.14745   0.15814   0.16086   0.16853
     Eigenvalues ---    0.17154   0.17684   0.19536   0.20315   0.20478
     Eigenvalues ---    0.22533   0.23888   0.24254   0.26042   0.26704
     Eigenvalues ---    0.28991   0.29819   0.30895   0.31379   0.32123
     Eigenvalues ---    0.32956   0.33052   0.33316   0.33835   0.34315
     Eigenvalues ---    0.35907   0.36706   0.37757   0.39176   0.39752
     Eigenvalues ---    0.43749   0.49724   0.49797   0.49858   0.50070
     Eigenvalues ---    0.50499
 RFO step:  Lambda=-3.00324618D-04 EMin= 9.38481701D-04
 Quartic linear search produced a step of -0.85036.
 Iteration  1 RMS(Cart)=  0.04520336 RMS(Int)=  0.03984898
 Iteration  2 RMS(Cart)=  0.02838665 RMS(Int)=  0.01005773
 Iteration  3 RMS(Cart)=  0.00956917 RMS(Int)=  0.00035959
 Iteration  4 RMS(Cart)=  0.00032870 RMS(Int)=  0.00011496
 Iteration  5 RMS(Cart)=  0.00000025 RMS(Int)=  0.00011496
 ITry= 1 IFail=0 DXMaxC= 4.93D-01 DCOld= 1.00D+10 DXMaxT= 1.20D+00 DXLimC= 3.00D+00 Rises=F
 Variable       Old X    -DE/DX   Delta X   Delta X   Delta X     New X
                                 (Linear)    (Quad)   (Total)
    R1        2.66497   0.00285   0.01118   0.00146   0.01261   2.67758
    R2        2.70076  -0.00574  -0.01083  -0.00265  -0.01349   2.68727
    R3        2.68193   0.00052  -0.00283  -0.00140  -0.00423   2.67770
    R4        1.81972  -0.00040  -0.00041  -0.00071  -0.00112   1.81860
    R5        2.62777   0.00921   0.03312   0.00637   0.03949   2.66726
    R6        1.82071  -0.00007  -0.00040  -0.00159  -0.00199   1.81872
    R7        2.59748   0.02816   0.05029   0.00847   0.05876   2.65624
    R8        1.82823  -0.00696  -0.00627  -0.00339  -0.00966   1.81857
    R9        2.59144   0.00089   0.00135   0.00251   0.00385   2.59529
   R10        1.81617   0.00035   0.00114   0.00024   0.00138   1.81755
   R11        2.65607   0.00034  -0.00031  -0.00024  -0.00054   2.65553
   R12        1.81873  -0.00014  -0.00011  -0.00027  -0.00038   1.81835
   R13        2.88526  -0.00062  -0.01674   0.00108  -0.01563   2.86963
   R14        2.87588  -0.00081   0.00660  -0.00034   0.00635   2.88224
   R15        2.06848   0.00065   0.00054   0.00051   0.00105   2.06953
   R16        2.89269  -0.00742  -0.02244  -0.00136  -0.02377   2.86892
   R17        2.10514  -0.00255  -0.01678  -0.00001  -0.01679   2.08835
   R18        2.86310   0.00020  -0.00085  -0.00044  -0.00129   2.86181
   R19        2.09234  -0.00009  -0.00182  -0.00016  -0.00198   2.09036
   R20        2.90983  -0.00553  -0.02844   0.00238  -0.02616   2.88367
   R21        2.06632   0.00743   0.02222   0.00022   0.02244   2.08875
   R22        2.07715   0.00030  -0.00011  -0.00051  -0.00062   2.07653
   R23        2.07988  -0.00012  -0.00047   0.00015  -0.00032   2.07956
   R24        2.06257   0.00014   0.00065   0.00011   0.00076   2.06334
    A1        1.98387   0.00036   0.01715  -0.00210   0.01526   1.99913
    A2        1.88651   0.00146   0.00680   0.00233   0.00913   1.89563
    A3        1.85559   0.00369   0.01887   0.00640   0.02527   1.88086
    A4        1.88642   0.00437  -0.03682   0.01593  -0.02089   1.86553
    A5        1.90916  -0.00086  -0.00830  -0.00178  -0.01008   1.89909
    A6        1.86235   0.00071   0.00335   0.00037   0.00372   1.86607
    A7        1.91468   0.00023   0.00852   0.00424   0.01282   1.92750
    A8        1.96078   0.00222   0.00919   0.00343   0.01268   1.97345
    A9        1.83871  -0.00063   0.00481  -0.00053   0.00434   1.84305
   A10        1.94507  -0.00259  -0.04091  -0.00028  -0.04104   1.90403
   A11        1.88533   0.00125   0.02173  -0.00253   0.01904   1.90438
   A12        1.91489  -0.00038  -0.00037  -0.00462  -0.00511   1.90978
   A13        1.92878   0.00394   0.03684  -0.00229   0.03461   1.96339
   A14        1.92885  -0.00459  -0.05682  -0.00179  -0.05879   1.87006
   A15        1.95331  -0.00187  -0.03621  -0.00377  -0.04005   1.91325
   A16        1.93960   0.00073   0.00645   0.00297   0.00952   1.94912
   A17        1.84137   0.00178   0.03474   0.00895   0.04362   1.88499
   A18        1.86968   0.00019   0.01557  -0.00364   0.01174   1.88142
   A19        1.92038  -0.00085   0.00223  -0.00388  -0.00155   1.91883
   A20        1.85188   0.00088   0.00028   0.00068   0.00093   1.85280
   A21        1.90952   0.00003  -0.00318   0.00028  -0.00292   1.90661
   A22        1.98101  -0.00040   0.00059   0.00102   0.00153   1.98254
   A23        1.90877   0.00044  -0.00334   0.00156  -0.00176   1.90701
   A24        1.89063  -0.00008   0.00338   0.00034   0.00373   1.89437
   A25        1.96995  -0.00137  -0.02551  -0.00059  -0.02561   1.94433
   A26        1.93203  -0.00315  -0.04138   0.00827  -0.03285   1.89919
   A27        1.83860   0.00621   0.11148  -0.00534   0.10606   1.94466
   A28        1.91192   0.00239  -0.00198   0.00285   0.00131   1.91323
   A29        1.90212  -0.00173  -0.01033  -0.00370  -0.01382   1.88830
   A30        1.90709  -0.00236  -0.03201  -0.00210  -0.03442   1.87267
   A31        1.89795  -0.00062  -0.00585   0.00075  -0.00514   1.89282
   A32        1.90908  -0.00070  -0.01762  -0.00291  -0.02054   1.88854
   A33        1.90745   0.00055   0.00923   0.00227   0.01159   1.91904
   A34        1.97447   0.00105   0.00698   0.00215   0.00921   1.98368
   A35        1.85752   0.00016   0.00519  -0.00511   0.00007   1.85758
   A36        1.91598  -0.00041   0.00284   0.00289   0.00571   1.92169
   A37        1.94218   0.00003   0.00090   0.00110   0.00200   1.94418
   A38        1.94335   0.00027   0.00129   0.00240   0.00369   1.94704
   A39        1.87675   0.00008   0.00019   0.00008   0.00027   1.87702
   A40        1.89063  -0.00001   0.00169  -0.00023   0.00145   1.89208
   A41        1.92074  -0.00028  -0.00289  -0.00173  -0.00462   1.91611
   A42        1.88964  -0.00010  -0.00134  -0.00175  -0.00309   1.88655
    D1        1.08226   0.00097  -0.00494   0.01364   0.00882   1.09108
    D2       -3.05126   0.00054  -0.00274   0.01304   0.01034  -3.04091
    D3       -1.01516   0.00094  -0.00022   0.01395   0.01376  -1.00140
    D4        3.00773   0.00035   0.02737  -0.00972   0.01774   3.02548
    D5       -1.11134   0.00080   0.02113  -0.00844   0.01281  -1.09853
    D6        0.98670   0.00020   0.01940  -0.00529   0.01420   1.00090
    D7       -1.25440   0.00092   0.01542   0.00970   0.02500  -1.22940
    D8        0.91932  -0.00067  -0.02476   0.01496  -0.00970   0.90962
    D9        3.00341  -0.00032  -0.01702   0.01090  -0.00612   2.99729
   D10        0.81282   0.00119  -0.00313   0.02582   0.02256   0.83538
   D11        2.96711   0.00167  -0.01014   0.02676   0.01680   2.98392
   D12       -1.23385  -0.00240  -0.04680   0.01850  -0.02834  -1.26218
   D13       -0.30061  -0.00205  -0.51301   0.02800  -0.48503  -0.78564
   D14       -2.45077  -0.00181  -0.46512   0.01850  -0.44615  -2.89692
   D15        1.77293  -0.00097  -0.46734   0.01981  -0.44797   1.32496
   D16        1.36091  -0.00064  -0.04976  -0.06708  -0.11688   1.24403
   D17       -0.76382   0.00000  -0.02782  -0.06534  -0.09316  -0.85698
   D18       -2.86927  -0.00023  -0.03915  -0.06678  -0.10588  -2.97515
   D19       -0.93654  -0.00015  -0.00644   0.00632  -0.00013  -0.93667
   D20        1.17465   0.00004  -0.00277   0.00844   0.00567   1.18032
   D21       -3.04119   0.00012  -0.00355   0.00774   0.00418  -3.03701
   D22       -1.07729  -0.00082  -0.00213  -0.00152  -0.00363  -1.08093
   D23        3.05784   0.00176   0.04045   0.00032   0.04081   3.09865
   D24        1.03723   0.00018  -0.00235  -0.00189  -0.00434   1.03289
   D25        3.02309  -0.00200   0.00871  -0.00884   0.00002   3.02311
   D26        0.87504   0.00058   0.05129  -0.00700   0.04446   0.91950
   D27       -1.14557  -0.00101   0.00849  -0.00921  -0.00069  -1.14626
   D28        0.91837  -0.00076   0.02046  -0.00132   0.01914   0.93751
   D29       -1.22969   0.00182   0.06304   0.00052   0.06359  -1.16610
   D30        3.03289   0.00023   0.02024  -0.00169   0.01844   3.05133
   D31       -3.09694   0.00031   0.00343  -0.01134  -0.00794  -3.10488
   D32        1.11422   0.00004   0.00113  -0.01018  -0.00903   1.10519
   D33       -0.99906   0.00009  -0.00119  -0.01242  -0.01358  -1.01264
   D34       -0.94009   0.00032  -0.00919  -0.00344  -0.01274  -0.95283
   D35       -3.01212   0.00004  -0.01149  -0.00228  -0.01384  -3.02596
   D36        1.15779   0.00010  -0.01381  -0.00452  -0.01838   1.13941
   D37        1.14721  -0.00002  -0.00800  -0.00980  -0.01779   1.12941
   D38       -0.92482  -0.00029  -0.01030  -0.00864  -0.01889  -0.94371
   D39       -3.03810  -0.00023  -0.01262  -0.01088  -0.02343  -3.06153
   D40        1.08269  -0.00035  -0.00830   0.00034  -0.00782   1.07486
   D41       -3.03921  -0.00363  -0.07894   0.01278  -0.06607  -3.10527
   D42       -0.95353  -0.00612  -0.12460   0.00969  -0.11486  -1.06839
   D43       -3.05248   0.00196   0.00319  -0.00178   0.00149  -3.05099
   D44       -0.89119  -0.00132  -0.06745   0.01066  -0.05675  -0.94794
   D45        1.19448  -0.00380  -0.11311   0.00757  -0.10555   1.08894
   D46       -1.04943   0.00456   0.05799   0.00834   0.06633  -0.98310
   D47        1.11186   0.00128  -0.01266   0.02077   0.00808   1.11995
   D48       -3.08565  -0.00120  -0.05832   0.01769  -0.04071  -3.12636
   D49        1.07640   0.00051  -0.00244   0.00397   0.00150   1.07790
   D50       -1.06542   0.00016  -0.00579   0.00041  -0.00540  -1.07082
   D51       -3.12822   0.00045  -0.00351   0.00364   0.00011  -3.12811
   D52       -3.09579  -0.00018   0.00088   0.00022   0.00112  -3.09467
   D53        1.04559  -0.00053  -0.00247  -0.00334  -0.00579   1.03980
   D54       -1.01722  -0.00024  -0.00019  -0.00010  -0.00028  -1.01750
   D55       -0.97235   0.00006  -0.00056   0.00312   0.00256  -0.96980
   D56       -3.11417  -0.00029  -0.00391  -0.00044  -0.00435  -3.11852
   D57        1.10621   0.00000  -0.00163   0.00279   0.00116   1.10737
   D58       -3.11676  -0.00196  -0.05081   0.00280  -0.04803   3.11840
   D59       -0.99829  -0.00255  -0.06613   0.00313  -0.06307  -1.06136
   D60        1.07361  -0.00195  -0.05299   0.00004  -0.05299   1.02062
   D61        0.98306   0.00030   0.00912  -0.00426   0.00508   0.98814
   D62        3.10153  -0.00029  -0.00619  -0.00393  -0.00997   3.09157
   D63       -1.10976   0.00031   0.00695  -0.00702   0.00012  -1.10964
   D64       -1.09956   0.00239   0.04116  -0.00019   0.04099  -1.05856
   D65        1.01892   0.00180   0.02584   0.00014   0.02595   1.04486
   D66        3.09081   0.00240   0.03899  -0.00295   0.03603   3.12685
         Item               Value     Threshold  Converged?
 Maximum Force            0.028156     0.000450     NO 
 RMS     Force            0.003305     0.000300     NO 
 Maximum Displacement     0.492755     0.001800     NO 
 RMS     Displacement     0.064826     0.001200     NO 
 Predicted change in Energy=-4.227034D-04
 GradGradGradGradGradGradGradGradGradGradGradGradGradGradGradGradGradGrad

 Leave Link  103 at Fri Nov  1 11:02:57 2024, MaxMem=  4294967296 cpu:               0.6 elap:               0.0
 (Enter /home/matma/Software/gaussian16.B01_files/AVX2/tar//g16/l202.exe)
                          Input orientation:                          
 ---------------------------------------------------------------------
 Center     Atomic      Atomic             Coordinates (Angstroms)
 Number     Number       Type             X           Y           Z
 ---------------------------------------------------------------------
      1          8           0       -0.656045    1.143557    0.243440
      2          8           0       -0.853441   -2.486324   -0.305877
      3          8           0        1.962922   -1.987955    0.110623
      4          8           0        2.845929    0.605125   -0.469869
      5          8           0        0.993030    2.694254    0.100521
      6          8           0       -3.415352    0.960510   -0.063822
      7          6           0       -0.357720   -1.246723    0.168973
      8          6           0        1.052444   -1.008880   -0.341750
      9          6           0       -1.236132   -0.062618   -0.221620
     10          6           0        1.589239    0.340299    0.101416
     11          6           0        0.617407    1.440456   -0.315464
     12          6           0       -2.627627   -0.117914    0.373452
     13          1           0       -0.333341   -1.337804    1.260055
     14          1           0        1.020945   -1.013585   -1.446398
     15          1           0       -1.326113   -0.022742   -1.323406
     16          1           0        1.638415    0.346334    1.205626
     17          1           0        0.544894    1.485182   -1.411010
     18          1           0       -2.536276   -0.133444    1.469997
     19          1           0       -3.126622   -1.037703    0.061726
     20          1           0       -1.016070   -2.410204   -1.251340
     21          1           0        1.563876   -2.851051   -0.038000
     22          1           0        3.367883   -0.198596   -0.382086
     23          1           0        1.212270    2.657784    1.036297
     24          1           0       -2.922714    1.763941    0.130318
 ---------------------------------------------------------------------
                    Distance matrix (angstroms):
                    1          2          3          4          5
     1  O    0.000000
     2  O    3.676513   0.000000
     3  O    4.084482   2.890284   0.000000
     4  O    3.614214   4.823826   2.800132   0.000000
     5  O    2.268157   5.514798   4.781618   2.850094   0.000000
     6  O    2.782390   4.301470   6.135936   6.284490   4.739906
     7  C    2.409976   1.416980   2.436843   3.755107   4.166595
     8  C    2.809692   2.411748   1.411452   2.416199   3.729924
     9  C    1.416912   2.455178   3.748499   4.143758   3.559955
    10  C    2.388869   3.757974   2.358069   1.405621   2.428285
    11  C    1.422042   4.193219   3.707554   2.384938   1.373370
    12  C    2.344216   3.036213   4.963796   5.585141   4.592596
    13  H    2.700888   2.010410   2.648908   4.107965   4.400144
    14  H    3.212648   2.642550   2.064226   2.627622   4.017686
    15  H    2.065006   2.707032   4.090996   4.304496   3.845525
    16  H    2.612645   4.064227   2.598699   2.081429   2.674043
    17  H    2.072720   4.353105   4.048314   2.637235   1.986808
    18  H    2.582720   3.394364   5.052711   5.768596   4.725182
    19  H    3.300707   2.720475   5.177724   6.217142   5.558825
    20  H    3.872105   0.962363   3.302670   4.961647   5.649734
    21  H    4.578662   2.459310   0.962425   3.711513   5.576330
    22  H    4.287732   4.801987   2.327763   0.962346   3.773780
    23  H    2.532214   5.703547   4.796169   3.025027   0.961807
    24  H    2.352756   4.747306   6.160077   5.914417   4.024850
                    6          7          8          9         10
     6  O    0.000000
     7  C    3.778252   0.000000
     8  C    4.890496   1.518542   0.000000
     9  C    2.412612   1.525213   2.479400   0.000000
    10  C    5.045582   2.512738   1.518166   2.872179   0.000000
    11  C    4.069007   2.899394   2.487809   2.388230   1.525972
    12  C    1.405246   2.543325   3.853344   1.514407   4.250402
    13  H    4.066164   1.095149   2.143449   2.153252   2.802640
    14  H    5.048693   2.136467   1.105107   2.738396   2.133468
    15  H    2.630257   2.159424   2.755658   1.106173   3.265148
    16  H    5.246835   2.756272   2.138770   3.235320   1.105321
    17  H    4.215892   3.282433   2.760665   2.642420   2.165375
    18  H    2.078969   2.770950   4.114333   2.134704   4.372336
    19  H    2.022865   2.778851   4.198597   2.145933   4.913228
    20  H    4.304471   1.950487   2.658912   2.572918   4.022791
    21  H    6.270676   2.511819   1.935826   3.955896   3.194494
    22  H    6.888911   3.909265   2.453455   4.608816   1.920353
    23  H    5.050336   4.296778   3.920330   3.870093   2.527221
    24  H    0.962229   3.955350   4.869627   2.510924   4.731312
                   11         12         13         14         15
    11  C    0.000000
    12  C    3.665156   0.000000
    13  H    3.332403   2.745532   0.000000
    14  H    2.732063   4.174465   3.043698   0.000000
    15  H    2.633280   2.140636   3.064189   2.550604   0.000000
    16  H    2.133841   4.371173   2.593666   3.043661   3.914160
    17  H    1.098854   3.977324   3.984362   2.543956   2.404616
    18  H    3.951044   1.100453   2.519421   4.683356   3.046284
    19  H    4.505696   1.091871   3.054255   4.413313   2.488085
    20  H    4.286221   3.239083   2.814830   2.477503   2.408588
    21  H    4.403387   5.020760   2.752144   2.377949   4.243070
    22  H    3.202506   6.043466   4.206362   2.702792   4.790679
    23  H    1.913899   4.784211   4.289954   4.436139   4.381417
    24  H    3.582711   1.920304   4.195472   5.074754   2.802621
                   16         17         18         19         20
    16  H    0.000000
    17  H    3.056067   0.000000
    18  H    4.210479   4.518159   0.000000
    19  H    5.092116   4.691900   1.774661   0.000000
    20  H    4.547688   4.199540   3.860096   2.839425   0.000000
    21  H    3.431534   4.661159   5.144968   5.029806   2.884902
    22  H    2.410152   3.444279   6.188178   6.563510   4.986567
    23  H    2.356497   2.794584   4.693682   5.782076   5.990266
    24  H    4.895896   3.804958   2.354600   2.809892   4.792469
                   21         22         23         24
    21  H    0.000000
    22  H    3.226198   0.000000
    23  H    5.623611   3.849335   0.000000
    24  H    6.438631   6.609517   4.326413   0.000000
 Stoichiometry    C6H12O6
 Framework group  C1[X(C6H12O6)]
 Deg. of freedom    66
 Full point group                 C1      NOp   1
 RotChk:  IX=2 Diff= 2.39D-02
 Largest Abelian subgroup         C1      NOp   1
 Largest concise Abelian subgroup C1      NOp   1
                         Standard orientation:                         
 ---------------------------------------------------------------------
 Center     Atomic      Atomic             Coordinates (Angstroms)
 Number     Number       Type             X           Y           Z
 ---------------------------------------------------------------------
      1          8           0       -0.710327   -1.116236   -0.221579
      2          8           0       -0.726584    2.536877    0.192243
      3          8           0        2.042641    1.898935   -0.335170
      4          8           0        2.841739   -0.707116    0.305669
      5          8           0        0.876374   -2.732022   -0.094499
      6          8           0       -3.441288   -0.799711    0.206620
      7          6           0       -0.307495    1.259588   -0.255784
      8          6           0        1.114332    0.978825    0.197594
      9          6           0       -1.215500    0.131055    0.221936
     10          6           0        1.571287   -0.408488   -0.216387
     11          6           0        0.574892   -1.448089    0.288606
     12          6           0       -2.630528    0.225586   -0.309278
     13          1           0       -0.332039    1.308500   -1.349564
     14          1           0        1.136494    1.026362    1.301455
     15          1           0       -1.253731    0.136570    1.327434
     16          1           0        1.566729   -0.458119   -1.320584
     17          1           0        0.553586   -1.448425    1.387254
     18          1           0       -2.591712    0.195902   -1.408646
     19          1           0       -3.074353    1.177628   -0.011258
     20          1           0       -0.846407    2.503563    1.146536
     21          1           0        1.688266    2.783833   -0.202368
     22          1           0        3.392505    0.068829    0.161881
     23          1           0        1.051475   -2.740436   -1.040196
     24          1           0       -2.993181   -1.630898    0.021657
 ---------------------------------------------------------------------
 Rotational constants (GHZ):           1.1722345           0.7953301           0.4957035
 Leave Link  202 at Fri Nov  1 11:02:58 2024, MaxMem=  4294967296 cpu:               0.1 elap:               0.0
 (Enter /home/matma/Software/gaussian16.B01_files/AVX2/tar//g16/l301.exe)
 Standard basis: 6-311+G(d,p) (5D, 7F)
 Ernie: Thresh=  0.10000D-02 Tol=  0.10000D-05 Strict=F.
 There are   348 symmetry adapted cartesian basis functions of A   symmetry.
 There are   336 symmetry adapted basis functions of A   symmetry.
   336 basis functions,   528 primitive gaussians,   348 cartesian basis functions
    48 alpha electrons       48 beta electrons
       nuclear repulsion energy       828.2154106864 Hartrees.
 IExCor= 1009 DFT=T Ex+Corr=PBE1PBE ExCW=0 ScaHFX=  0.250000
 ScaDFX=  0.750000  0.750000  1.000000  1.000000 ScalE2=  1.000000  1.000000
 IRadAn=  99590 IRanWt=     -1 IRanGd=            0 ICorTp=0 IEmpDi=131
 NAtoms=   24 NActive=   24 NUniq=   24 SFac= 1.00D+00 NAtFMM=   60 NAOKFM=F Big=F
 Integral buffers will be    131072 words long.
 Raffenetti 2 integral format.
 Two-electron integral symmetry is turned on.
 R6Disp:  Grimme-D3 Dispersion energy=       -0.0157251405 Hartrees.
 Nuclear repulsion after empirical dispersion term =      828.1996855459 Hartrees.
 Leave Link  301 at Fri Nov  1 11:02:58 2024, MaxMem=  4294967296 cpu:               0.8 elap:               0.0
 (Enter /home/matma/Software/gaussian16.B01_files/AVX2/tar//g16/l302.exe)
 NPDir=0 NMtPBC=     1 NCelOv=     1 NCel=       1 NClECP=     1 NCelD=      1
         NCelK=      1 NCelE2=     1 NClLst=     1 CellRange=     0.0.
 One-electron integrals computed using PRISM.
 One-electron integral symmetry used in STVInt
 NBasis=   336 RedAO= T EigKep=  7.79D-06  NBF=   336
 NBsUse=   336 1.00D-06 EigRej= -1.00D+00 NBFU=   336
 Precomputing XC quadrature grid using
 IXCGrd= 4 IRadAn=       99590 IRanWt=          -1 IRanGd=           0 AccXCQ= 0.00D+00.
 Generated NRdTot=       0 NPtTot=           0 NUsed=           0 NTot=          32
 NSgBfM=   348   348   348   348   348 MxSgAt=    24 MxSgA2=    24.
 Leave Link  302 at Fri Nov  1 11:02:58 2024, MaxMem=  4294967296 cpu:               5.4 elap:               0.2
 (Enter /home/matma/Software/gaussian16.B01_files/AVX2/tar//g16/l303.exe)
 DipDrv:  MaxL=1.
 Leave Link  303 at Fri Nov  1 11:02:58 2024, MaxMem=  4294967296 cpu:               0.8 elap:               0.0
 (Enter /home/matma/Software/gaussian16.B01_files/AVX2/tar//g16/l401.exe)
 Lowest energy guess from the checkpoint file:  "input.chk"
 B after Tr=     0.000000    0.000000    0.000000
         Rot=    0.999999   -0.000154   -0.000204    0.001368 Ang=  -0.16 deg.
 Guess basis will be translated and rotated to current coordinates.
 B after Tr=    -0.000000    0.000000   -0.000000
         Rot=    0.999994    0.000837   -0.000318    0.003425 Ang=   0.41 deg.
 Guess basis will be translated and rotated to current coordinates.
 CkInt1:  FT= 1.50D-01
 Max alpha theta=  7.198 degrees.
 JPrj=2 DoOrth=T DoCkMO=T.
 Leave Link  401 at Fri Nov  1 11:02:58 2024, MaxMem=  4294967296 cpu:               4.8 elap:               0.2
 (Enter /home/matma/Software/gaussian16.B01_files/AVX2/tar//g16/l502.exe)
 Integral symmetry usage will be decided dynamically.
 Closed shell SCF:
 Using DIIS extrapolation, IDIIS=  1040.
 NGot=  4294967296 LenX=  4294711890 LenY=  4294590345
 Requested convergence on RMS density matrix=1.00D-08 within 128 cycles.
 Requested convergence on MAX density matrix=1.00D-06.
 Requested convergence on             energy=1.00D-06.
 No special actions if energy rises.
 Fock matrices will be formed incrementally for  20 cycles.

 Cycle   1  Pass 1  IDiag  1:
 FoFJK:  IHMeth= 1 ICntrl=       0 DoSepK=F KAlg= 0 I1Cent=           0 FoldK=F
 IRaf= 920000000 NMat=       1 IRICut=       1 DoRegI=T DoRafI=F ISym2E= 0 IDoP0=0 IntGTp=1.
 FoFCou: FMM=F IPFlag=           0 FMFlag=      100000 FMFlg1=           0
         NFxFlg=           0 DoJE=F BraDBF=F KetDBF=F FulRan=T
         wScrn=  0.000000 ICntrl=         0 IOpCl=  0 I1Cent=           0 NGrid=           0
         NMat0=    1 NMatS0=      1 NMatT0=    0 NMatD0=    1 NMtDS0=    0 NMtDT0=    0
 Symmetry not used in FoFCou.
 E= -686.660828005876    
 DIIS: error= 9.19D-04 at cycle   1 NSaved=   1.
 NSaved= 1 IEnMin= 1 EnMin= -686.660828005876     IErMin= 1 ErrMin= 9.19D-04
 ErrMax= 9.19D-04  0.00D+00 EMaxC= 1.00D-01 BMatC= 7.47D-04 BMatP= 7.47D-04
 IDIUse=3 WtCom= 9.91D-01 WtEn= 9.19D-03
 Coeff-Com:  0.100D+01
 Coeff-En:   0.100D+01
 Coeff:      0.100D+01
 Gap=    19.738 Goal=   None    Shift=    0.000
 RMSDP=8.22D-04 MaxDP=6.24D-02              OVMax= 9.05D-03

 Cycle   2  Pass 1  IDiag  1:
 RMSU=  7.70D-04    CP:  9.86D-01
 E= -686.661677692021     Delta-E=       -0.000849686145 Rises=F Damp=F
 DIIS: error= 3.71D-04 at cycle   2 NSaved=   2.
 NSaved= 2 IEnMin= 2 EnMin= -686.661677692021     IErMin= 2 ErrMin= 3.71D-04
 ErrMax= 3.71D-04  0.00D+00 EMaxC= 1.00D-01 BMatC= 7.10D-05 BMatP= 7.47D-04
 IDIUse=3 WtCom= 9.96D-01 WtEn= 3.71D-03
 Coeff-Com:  0.995D-01 0.900D+00
 Coeff-En:   0.000D+00 0.100D+01
 Coeff:      0.992D-01 0.901D+00
 Gap=     0.278 Goal=   None    Shift=    0.000
 RMSDP=1.15D-04 MaxDP=8.45D-03 DE=-8.50D-04 OVMax= 2.81D-03

 Cycle   3  Pass 1  IDiag  1:
 RMSU=  1.12D-04    CP:  9.85D-01  1.02D+00
 E= -686.661672254536     Delta-E=        0.000005437485 Rises=F Damp=F
 DIIS: error= 3.85D-04 at cycle   3 NSaved=   3.
 NSaved= 3 IEnMin= 2 EnMin= -686.661677692021     IErMin= 2 ErrMin= 3.71D-04
 ErrMax= 3.85D-04  0.00D+00 EMaxC= 1.00D-01 BMatC= 8.48D-05 BMatP= 7.10D-05
 IDIUse=3 WtCom= 3.38D-01 WtEn= 6.62D-01
 Coeff-Com: -0.276D-01 0.531D+00 0.497D+00
 Coeff-En:   0.000D+00 0.523D+00 0.477D+00
 Coeff:     -0.932D-02 0.526D+00 0.483D+00
 Gap=     0.278 Goal=   None    Shift=    0.000
 RMSDP=6.13D-05 MaxDP=3.93D-03 DE= 5.44D-06 OVMax= 2.00D-03

 Cycle   4  Pass 1  IDiag  1:
 RMSU=  2.80D-05    CP:  9.85D-01  1.04D+00  5.53D-01
 E= -686.661730343449     Delta-E=       -0.000058088913 Rises=F Damp=F
 DIIS: error= 4.63D-05 at cycle   4 NSaved=   4.
 NSaved= 4 IEnMin= 4 EnMin= -686.661730343449     IErMin= 4 ErrMin= 4.63D-05
 ErrMax= 4.63D-05  0.00D+00 EMaxC= 1.00D-01 BMatC= 1.83D-06 BMatP= 7.10D-05
 IDIUse=1 WtCom= 1.00D+00 WtEn= 0.00D+00
 Coeff-Com: -0.150D-01 0.156D+00 0.205D+00 0.654D+00
 Coeff:     -0.150D-01 0.156D+00 0.205D+00 0.654D+00
 Gap=     0.278 Goal=   None    Shift=    0.000
 RMSDP=1.15D-05 MaxDP=7.99D-04 DE=-5.81D-05 OVMax= 2.13D-04

 Cycle   5  Pass 1  IDiag  1:
 RMSU=  8.21D-06    CP:  9.85D-01  1.04D+00  5.21D-01  8.29D-01
 E= -686.661731554400     Delta-E=       -0.000001210951 Rises=F Damp=F
 DIIS: error= 1.26D-05 at cycle   5 NSaved=   5.
 NSaved= 5 IEnMin= 5 EnMin= -686.661731554400     IErMin= 5 ErrMin= 1.26D-05
 ErrMax= 1.26D-05  0.00D+00 EMaxC= 1.00D-01 BMatC= 1.88D-07 BMatP= 1.83D-06
 IDIUse=1 WtCom= 1.00D+00 WtEn= 0.00D+00
 Coeff-Com: -0.522D-02 0.408D-01 0.680D-01 0.317D+00 0.580D+00
 Coeff:     -0.522D-02 0.408D-01 0.680D-01 0.317D+00 0.580D+00
 Gap=     0.278 Goal=   None    Shift=    0.000
 RMSDP=4.89D-06 MaxDP=7.21D-04 DE=-1.21D-06 OVMax= 6.81D-05

 Cycle   6  Pass 1  IDiag  1:
 RMSU=  3.33D-06    CP:  9.85D-01  1.04D+00  5.30D-01  8.31D-01  6.94D-01
 E= -686.661731698060     Delta-E=       -0.000000143660 Rises=F Damp=F
 DIIS: error= 4.45D-06 at cycle   6 NSaved=   6.
 NSaved= 6 IEnMin= 6 EnMin= -686.661731698060     IErMin= 6 ErrMin= 4.45D-06
 ErrMax= 4.45D-06  0.00D+00 EMaxC= 1.00D-01 BMatC= 1.81D-08 BMatP= 1.88D-07
 IDIUse=1 WtCom= 1.00D+00 WtEn= 0.00D+00
 Coeff-Com: -0.604D-03-0.356D-03 0.630D-02 0.673D-01 0.271D+00 0.656D+00
 Coeff:     -0.604D-03-0.356D-03 0.630D-02 0.673D-01 0.271D+00 0.656D+00
 Gap=     0.278 Goal=   None    Shift=    0.000
 RMSDP=1.06D-06 MaxDP=1.06D-04 DE=-1.44D-07 OVMax= 2.71D-05

 Cycle   7  Pass 1  IDiag  1:
 RMSU=  6.57D-07    CP:  9.85D-01  1.04D+00  5.30D-01  8.40D-01  7.58D-01
                    CP:  8.47D-01
 E= -686.661731709518     Delta-E=       -0.000000011457 Rises=F Damp=F
 DIIS: error= 1.70D-06 at cycle   7 NSaved=   7.
 NSaved= 7 IEnMin= 7 EnMin= -686.661731709518     IErMin= 7 ErrMin= 1.70D-06
 ErrMax= 1.70D-06  0.00D+00 EMaxC= 1.00D-01 BMatC= 2.96D-09 BMatP= 1.81D-08
 IDIUse=1 WtCom= 1.00D+00 WtEn= 0.00D+00
 Coeff-Com:  0.166D-03-0.466D-02-0.361D-02 0.712D-02 0.998D-01 0.370D+00
 Coeff-Com:  0.531D+00
 Coeff:      0.166D-03-0.466D-02-0.361D-02 0.712D-02 0.998D-01 0.370D+00
 Coeff:      0.531D+00
 Gap=     0.278 Goal=   None    Shift=    0.000
 RMSDP=3.70D-07 MaxDP=4.67D-05 DE=-1.15D-08 OVMax= 7.77D-06

 Cycle   8  Pass 1  IDiag  1:
 RMSU=  2.93D-07    CP:  9.85D-01  1.04D+00  5.30D-01  8.45D-01  7.64D-01
                    CP:  8.11D-01  8.20D-01
 E= -686.661731711653     Delta-E=       -0.000000002136 Rises=F Damp=F
 DIIS: error= 2.33D-07 at cycle   8 NSaved=   8.
 NSaved= 8 IEnMin= 8 EnMin= -686.661731711653     IErMin= 8 ErrMin= 2.33D-07
 ErrMax= 2.33D-07  0.00D+00 EMaxC= 1.00D-01 BMatC= 4.73D-11 BMatP= 2.96D-09
 IDIUse=1 WtCom= 1.00D+00 WtEn= 0.00D+00
 Coeff-Com:  0.101D-03-0.174D-02-0.187D-02-0.210D-02 0.161D-01 0.805D-01
 Coeff-Com:  0.169D+00 0.740D+00
 Coeff:      0.101D-03-0.174D-02-0.187D-02-0.210D-02 0.161D-01 0.805D-01
 Coeff:      0.169D+00 0.740D+00
 Gap=     0.278 Goal=   None    Shift=    0.000
 RMSDP=7.59D-08 MaxDP=5.94D-06 DE=-2.14D-09 OVMax= 1.72D-06

 Cycle   9  Pass 1  IDiag  1:
 RMSU=  5.90D-08    CP:  9.85D-01  1.04D+00  5.30D-01  8.45D-01  7.64D-01
                    CP:  8.22D-01  8.46D-01  9.52D-01
 E= -686.661731711685     Delta-E=       -0.000000000032 Rises=F Damp=F
 DIIS: error= 8.32D-08 at cycle   9 NSaved=   9.
 NSaved= 9 IEnMin= 9 EnMin= -686.661731711685     IErMin= 9 ErrMin= 8.32D-08
 ErrMax= 8.32D-08  0.00D+00 EMaxC= 1.00D-01 BMatC= 5.33D-12 BMatP= 4.73D-11
 IDIUse=1 WtCom= 1.00D+00 WtEn= 0.00D+00
 Coeff-Com:  0.334D-04-0.433D-03-0.555D-03-0.129D-02 0.597D-03 0.997D-02
 Coeff-Com:  0.347D-01 0.295D+00 0.662D+00
 Coeff:      0.334D-04-0.433D-03-0.555D-03-0.129D-02 0.597D-03 0.997D-02
 Coeff:      0.347D-01 0.295D+00 0.662D+00
 Gap=     0.278 Goal=   None    Shift=    0.000
 RMSDP=3.09D-08 MaxDP=3.07D-06 DE=-3.18D-11 OVMax= 4.73D-07

 Cycle  10  Pass 1  IDiag  1:
 RMSU=  1.66D-08    CP:  9.85D-01  1.04D+00  5.30D-01  8.45D-01  7.64D-01
                    CP:  8.19D-01  8.59D-01  1.00D+00  9.55D-01
 E= -686.661731711693     Delta-E=       -0.000000000008 Rises=F Damp=F
 DIIS: error= 3.39D-08 at cycle  10 NSaved=  10.
 NSaved=10 IEnMin=10 EnMin= -686.661731711693     IErMin=10 ErrMin= 3.39D-08
 ErrMax= 3.39D-08  0.00D+00 EMaxC= 1.00D-01 BMatC= 8.92D-13 BMatP= 5.33D-12
 IDIUse=1 WtCom= 1.00D+00 WtEn= 0.00D+00
 Coeff-Com:  0.380D-05 0.369D-05-0.339D-04-0.342D-03-0.150D-02-0.463D-02
 Coeff-Com: -0.343D-02 0.560D-01 0.324D+00 0.630D+00
 Coeff:      0.380D-05 0.369D-05-0.339D-04-0.342D-03-0.150D-02-0.463D-02
 Coeff:     -0.343D-02 0.560D-01 0.324D+00 0.630D+00
 Gap=     0.278 Goal=   None    Shift=    0.000
 RMSDP=7.71D-09 MaxDP=5.59D-07 DE=-7.73D-12 OVMax= 1.70D-07

 SCF Done:  E(RPBE1PBE) =  -686.661731712     A.U. after   10 cycles
            NFock= 10  Conv=0.77D-08     -V/T= 2.0032
 KE= 6.844570564137D+02 PE=-3.269669496718D+03 EE= 1.070351023046D+03
 Leave Link  502 at Fri Nov  1 11:03:12 2024, MaxMem=  4294967296 cpu:             400.1 elap:              14.3
 (Enter /home/matma/Software/gaussian16.B01_files/AVX2/tar//g16/l701.exe)
 ... and contract with generalized density number  0.
 Compute integral first derivatives.
 R6Disp: Adding Grimme-D3 dispersion energy 1st derivatives to the gradient.
 Leave Link  701 at Fri Nov  1 11:03:13 2024, MaxMem=  4294967296 cpu:               3.7 elap:               0.2
 (Enter /home/matma/Software/gaussian16.B01_files/AVX2/tar//g16/l702.exe)
 L702 exits ... SP integral derivatives will be done elsewhere.
 Leave Link  702 at Fri Nov  1 11:03:13 2024, MaxMem=  4294967296 cpu:               0.3 elap:               0.0
 (Enter /home/matma/Software/gaussian16.B01_files/AVX2/tar//g16/l703.exe)
 Integral derivatives from FoFJK, PRISM(SPDF).
 Compute integral first derivatives, UseDBF=F ICtDFT=           0.
 Calling FoFJK, ICntrl=      2127 FMM=F ISym2X=0 I1Cent= 0 IOpClX= 0 NMat=1 NMatS=1 NMatT=0.
 FoFJK:  IHMeth= 1 ICntrl=    2127 DoSepK=F KAlg= 0 I1Cent=           0 FoldK=F
 IRaf=         0 NMat=       1 IRICut=       1 DoRegI=T DoRafI=F ISym2E= 0 IDoP0=0 IntGTp=1.
 FoFCou: FMM=F IPFlag=           0 FMFlag=      100000 FMFlg1=         800
         NFxFlg=           0 DoJE=F BraDBF=F KetDBF=F FulRan=T
         wScrn=  0.000000 ICntrl=      2127 IOpCl=  0 I1Cent=           0 NGrid=           0
         NMat0=    1 NMatS0=      1 NMatT0=    0 NMatD0=    1 NMtDS0=    0 NMtDT0=    0
 Symmetry not used in FoFCou.
 Leave Link  703 at Fri Nov  1 11:03:17 2024, MaxMem=  4294967296 cpu:             123.6 elap:               4.4
 (Enter /home/matma/Software/gaussian16.B01_files/AVX2/tar//g16/l716.exe)
 Dipole        = 2.74719268D-01 9.66469329D-01-6.77282701D-02
 ***** Axes restored to original set *****
 -------------------------------------------------------------------
 Center     Atomic                   Forces (Hartrees/Bohr)
 Number     Number              X              Y              Z
 -------------------------------------------------------------------
      1        8           0.000171972   -0.000079516    0.000332610
      2        8          -0.000266831   -0.000051347    0.000237033
      3        8          -0.000912162   -0.000357956    0.000161401
      4        8          -0.001560352   -0.001493605    0.000997246
      5        8          -0.000279141    0.000458400    0.000107419
      6        8          -0.000068526    0.000036130   -0.000022841
      7        6           0.000175243    0.000015720   -0.000202691
      8        6           0.001132613   -0.000110188    0.000282160
      9        6           0.000001877    0.000059080    0.000007800
     10        6           0.000321825    0.001282728   -0.001037232
     11        6          -0.000705650   -0.000313078   -0.000103079
     12        6           0.000033576    0.000156832   -0.000010620
     13        1          -0.000000266   -0.000011168    0.000061137
     14        1           0.000201797    0.000518473   -0.000366494
     15        1           0.000020419   -0.000006617    0.000024202
     16        1           0.000904782   -0.000522798   -0.000783719
     17        1          -0.000068189    0.000023705   -0.000071090
     18        1          -0.000002511   -0.000059194    0.000011853
     19        1           0.000017628   -0.000016130    0.000013096
     20        1           0.000107741   -0.000013876    0.000045799
     21        1           0.000209046    0.000187784   -0.000109290
     22        1           0.000448643    0.000315680    0.000562242
     23        1           0.000139713    0.000007775   -0.000114903
     24        1          -0.000023250   -0.000026834   -0.000022040
 -------------------------------------------------------------------
 Cartesian Forces:  Max     0.001560352 RMS     0.000457382
 Leave Link  716 at Fri Nov  1 11:03:17 2024, MaxMem=  4294967296 cpu:               0.3 elap:               0.0
 (Enter /home/matma/Software/gaussian16.B01_files/AVX2/tar//g16/l103.exe)

 GradGradGradGradGradGradGradGradGradGradGradGradGradGradGradGradGradGrad
 Berny optimization.
 Using GEDIIS/GDIIS optimizer.
 FormGI is forming the generalized inverse of G from B-inverse, IUseBI=4.
 Internal  Forces:  Max     0.001849074 RMS     0.000288527
 Search for a local minimum.
 Step number   9 out of a maximum of  142
 All quantities printed in internal units (Hartrees-Bohrs-Radians)
 RMS Force = .28853D-03 SwitMx=.10000D-02 MixMth= 2
 Mixed Optimization -- En-DIIS/RFO-DIIS
 Update second derivatives using D2CorX and points    7    9
 DE= -3.53D-04 DEPred=-4.23D-04 R= 8.35D-01
 TightC=F SS=  1.41D+00  RLast= 2.40D-01 DXNew= 2.0182D+00 7.1957D-01
 Trust test= 8.35D-01 RLast= 2.40D-01 DXMaxT set to 1.20D+00
 ITU=  1 -1  1  0  1  0  1  1  0
 Use linear search instead of GDIIS.
     Eigenvalues ---    0.00102   0.00310   0.00341   0.00440   0.00561
     Eigenvalues ---    0.00703   0.00778   0.00844   0.01254   0.02369
     Eigenvalues ---    0.02424   0.03661   0.04159   0.04655   0.04993
     Eigenvalues ---    0.05138   0.05397   0.05659   0.05834   0.06032
     Eigenvalues ---    0.06297   0.06749   0.06812   0.07051   0.07314
     Eigenvalues ---    0.08542   0.09545   0.10198   0.10749   0.12203
     Eigenvalues ---    0.14045   0.14732   0.15802   0.16048   0.16869
     Eigenvalues ---    0.17158   0.17676   0.19544   0.20188   0.20462
     Eigenvalues ---    0.21023   0.23885   0.24252   0.25794   0.26575
     Eigenvalues ---    0.28861   0.29821   0.30522   0.31377   0.31996
     Eigenvalues ---    0.32935   0.33052   0.33308   0.33842   0.34314
     Eigenvalues ---    0.35226   0.36617   0.37311   0.39240   0.39745
     Eigenvalues ---    0.40273   0.49719   0.49806   0.49850   0.49969
     Eigenvalues ---    0.50259
 RFO step:  Lambda=-1.33400705D-04 EMin= 1.02063497D-03
 Quartic linear search produced a step of -0.01833.
 Iteration  1 RMS(Cart)=  0.02306510 RMS(Int)=  0.00133414
 Iteration  2 RMS(Cart)=  0.00126041 RMS(Int)=  0.00001474
 Iteration  3 RMS(Cart)=  0.00000335 RMS(Int)=  0.00001460
 Iteration  4 RMS(Cart)=  0.00000000 RMS(Int)=  0.00001460
 ITry= 1 IFail=0 DXMaxC= 1.95D-01 DCOld= 1.00D+10 DXMaxT= 1.20D+00 DXLimC= 3.00D+00 Rises=F
 Variable       Old X    -DE/DX   Delta X   Delta X   Delta X     New X
                                 (Linear)    (Quad)   (Total)
    R1        2.67758  -0.00026   0.00001  -0.00024  -0.00024   2.67734
    R2        2.68727  -0.00015   0.00001  -0.00236  -0.00235   2.68492
    R3        2.67770   0.00002   0.00002   0.00003   0.00004   2.67775
    R4        1.81860  -0.00007   0.00001  -0.00014  -0.00013   1.81848
    R5        2.66726  -0.00032  -0.00001  -0.00079  -0.00080   2.66646
    R6        1.81872  -0.00024   0.00003  -0.00069  -0.00066   1.81806
    R7        2.65624  -0.00185   0.00001  -0.00377  -0.00376   2.65248
    R8        1.81857   0.00003   0.00004   0.00034   0.00039   1.81896
    R9        2.59529   0.00038  -0.00004   0.00206   0.00201   2.59731
   R10        1.81755  -0.00008  -0.00000  -0.00096  -0.00096   1.81659
   R11        2.65553   0.00007   0.00000   0.00009   0.00010   2.65563
   R12        1.81835  -0.00004   0.00000  -0.00004  -0.00003   1.81832
   R13        2.86963   0.00017  -0.00007   0.00173   0.00166   2.87129
   R14        2.88224  -0.00008   0.00003  -0.00009  -0.00006   2.88218
   R15        2.06953   0.00006  -0.00001   0.00019   0.00018   2.06972
   R16        2.86892  -0.00028  -0.00005  -0.00061  -0.00066   2.86826
   R17        2.08835   0.00036  -0.00005   0.00053   0.00047   2.08882
   R18        2.86181   0.00002   0.00001  -0.00009  -0.00008   2.86173
   R19        2.09036  -0.00003  -0.00000  -0.00002  -0.00002   2.09034
   R20        2.88367   0.00069  -0.00013  -0.00133  -0.00147   2.88220
   R21        2.08875  -0.00075   0.00007  -0.00085  -0.00078   2.08797
   R22        2.07653   0.00008   0.00001   0.00115   0.00116   2.07769
   R23        2.07956   0.00001  -0.00000   0.00000  -0.00000   2.07955
   R24        2.06334   0.00000   0.00000   0.00004   0.00004   2.06338
    A1        1.99913  -0.00009   0.00009  -0.00683  -0.00681   1.99232
    A2        1.89563  -0.00004  -0.00002  -0.00027  -0.00029   1.89534
    A3        1.88086   0.00008  -0.00006   0.00138   0.00132   1.88219
    A4        1.86553   0.00042  -0.00041   0.00264   0.00223   1.86776
    A5        1.89909   0.00007   0.00001   0.00380   0.00380   1.90289
    A6        1.86607   0.00002   0.00000   0.00013   0.00014   1.86621
    A7        1.92750   0.00017  -0.00005   0.00119   0.00115   1.92865
    A8        1.97345  -0.00017  -0.00003   0.00034   0.00031   1.97376
    A9        1.84305  -0.00007   0.00002  -0.00109  -0.00107   1.84198
   A10        1.90403   0.00014  -0.00013   0.00402   0.00386   1.90788
   A11        1.90438  -0.00012   0.00012  -0.00352  -0.00339   1.90099
   A12        1.90978   0.00003   0.00009  -0.00136  -0.00126   1.90852
   A13        1.96339  -0.00060   0.00016  -0.00377  -0.00359   1.95980
   A14        1.87006   0.00056  -0.00015   0.00176   0.00162   1.87168
   A15        1.91325   0.00010  -0.00005   0.00227   0.00222   1.91547
   A16        1.94912  -0.00006  -0.00004   0.00003  -0.00003   1.94909
   A17        1.88499   0.00039  -0.00005   0.00484   0.00479   1.88978
   A18        1.88142  -0.00040   0.00012  -0.00527  -0.00514   1.87628
   A19        1.91883   0.00008   0.00008  -0.00194  -0.00189   1.91693
   A20        1.85280  -0.00005  -0.00001   0.00079   0.00079   1.85359
   A21        1.90661  -0.00002  -0.00002   0.00045   0.00044   1.90705
   A22        1.98254   0.00002  -0.00002   0.00008   0.00009   1.98263
   A23        1.90701  -0.00004  -0.00004   0.00069   0.00064   1.90765
   A24        1.89437   0.00001   0.00000  -0.00003  -0.00003   1.89434
   A25        1.94433  -0.00038  -0.00008  -0.00035  -0.00042   1.94392
   A26        1.89919   0.00088  -0.00029   0.00561   0.00534   1.90453
   A27        1.94466  -0.00058   0.00046  -0.00598  -0.00554   1.93912
   A28        1.91323  -0.00016  -0.00007  -0.00271  -0.00282   1.91041
   A29        1.88830   0.00012   0.00003  -0.00032  -0.00028   1.88802
   A30        1.87267   0.00014  -0.00006   0.00385   0.00379   1.87647
   A31        1.89282  -0.00024  -0.00003   0.00052   0.00053   1.89334
   A32        1.88854  -0.00002  -0.00000  -0.00425  -0.00432   1.88421
   A33        1.91904   0.00006  -0.00001  -0.00262  -0.00262   1.91643
   A34        1.98368   0.00023  -0.00002   0.00255   0.00255   1.98623
   A35        1.85758  -0.00014   0.00011   0.00367   0.00376   1.86135
   A36        1.92169   0.00010  -0.00004   0.00008   0.00003   1.92173
   A37        1.94418   0.00009  -0.00002   0.00020   0.00018   1.94437
   A38        1.94704   0.00001  -0.00004   0.00036   0.00032   1.94736
   A39        1.87702  -0.00004  -0.00000   0.00002   0.00002   1.87704
   A40        1.89208  -0.00002   0.00001   0.00015   0.00016   1.89224
   A41        1.91611  -0.00004   0.00002  -0.00045  -0.00042   1.91569
   A42        1.88655  -0.00001   0.00003  -0.00031  -0.00028   1.88627
    D1        1.09108   0.00003  -0.00027   0.00887   0.00857   1.09965
    D2       -3.04091   0.00007  -0.00025   0.00832   0.00806  -3.03285
    D3       -1.00140   0.00004  -0.00026   0.00893   0.00867  -0.99274
    D4        3.02548  -0.00031   0.00026  -0.02162  -0.02134   3.00413
    D5       -1.09853  -0.00018   0.00022  -0.02082  -0.02058  -1.11911
    D6        1.00090  -0.00004   0.00016  -0.02487  -0.02471   0.97619
    D7       -1.22940  -0.00004  -0.00013   0.00450   0.00439  -1.22501
    D8        0.90962   0.00015  -0.00036   0.01086   0.01049   0.92011
    D9        2.99729   0.00005  -0.00025   0.00868   0.00843   3.00572
   D10        0.83538   0.00018  -0.00048   0.02248   0.02201   0.85739
   D11        2.98392   0.00012  -0.00053   0.02134   0.02080   3.00472
   D12       -1.26218   0.00001  -0.00049   0.01726   0.01678  -1.24541
   D13       -0.78564  -0.00022  -0.00217  -0.01444  -0.01663  -0.80227
   D14       -2.89692  -0.00036  -0.00185  -0.01455  -0.01639  -2.91331
   D15        1.32496  -0.00073  -0.00186  -0.01923  -0.02108   1.30388
   D16        1.24403   0.00012   0.00107   0.12881   0.12985   1.37388
   D17       -0.85698   0.00016   0.00111   0.13218   0.13332  -0.72366
   D18       -2.97515  -0.00001   0.00110   0.12798   0.12908  -2.84608
   D19       -0.93667  -0.00002  -0.00014  -0.00238  -0.00251  -0.93918
   D20        1.18032   0.00003  -0.00016  -0.00180  -0.00196   1.17836
   D21       -3.03701   0.00000  -0.00015  -0.00196  -0.00211  -3.03912
   D22       -1.08093   0.00020   0.00002  -0.00770  -0.00768  -1.08861
   D23        3.09865  -0.00007   0.00012  -0.00734  -0.00723   3.09142
   D24        1.03289   0.00021   0.00003  -0.00395  -0.00392   1.02897
   D25        3.02311   0.00020   0.00019  -0.01174  -0.01156   3.01155
   D26        0.91950  -0.00007   0.00029  -0.01138  -0.01110   0.90839
   D27       -1.14626   0.00021   0.00020  -0.00799  -0.00779  -1.15405
   D28        0.93751   0.00014   0.00009  -0.01039  -0.01029   0.92722
   D29       -1.16610  -0.00012   0.00019  -0.01003  -0.00984  -1.17594
   D30        3.05133   0.00016   0.00010  -0.00663  -0.00653   3.04480
   D31       -3.10488  -0.00011   0.00022   0.00133   0.00155  -3.10332
   D32        1.10519  -0.00012   0.00019   0.00163   0.00182   1.10700
   D33       -1.01264  -0.00011   0.00022   0.00111   0.00133  -1.01130
   D34       -0.95283   0.00010   0.00004   0.00606   0.00611  -0.94672
   D35       -3.02596   0.00009   0.00001   0.00636   0.00637  -3.01959
   D36        1.13941   0.00010   0.00004   0.00585   0.00589   1.14529
   D37        1.12941   0.00006   0.00015   0.00338   0.00354   1.13295
   D38       -0.94371   0.00005   0.00012   0.00368   0.00380  -0.93991
   D39       -3.06153   0.00006   0.00016   0.00317   0.00331  -3.05822
   D40        1.07486  -0.00031  -0.00004   0.00102   0.00098   1.07585
   D41       -3.10527   0.00044  -0.00049   0.00601   0.00553  -3.09974
   D42       -1.06839   0.00058  -0.00058   0.00895   0.00836  -1.06003
   D43       -3.05099  -0.00071   0.00004  -0.00247  -0.00242  -3.05341
   D44       -0.94794   0.00004  -0.00041   0.00253   0.00213  -0.94581
   D45        1.08894   0.00018  -0.00050   0.00546   0.00496   1.09390
   D46       -0.98310  -0.00052   0.00003   0.00017   0.00020  -0.98290
   D47        1.11995   0.00023  -0.00042   0.00516   0.00475   1.12470
   D48       -3.12636   0.00037  -0.00051   0.00810   0.00758  -3.11878
   D49        1.07790  -0.00000  -0.00008   0.00157   0.00149   1.07940
   D50       -1.07082  -0.00006  -0.00003   0.00088   0.00087  -1.06995
   D51       -3.12811  -0.00002  -0.00008   0.00143   0.00136  -3.12676
   D52       -3.09467   0.00007  -0.00000  -0.00027  -0.00027  -3.09494
   D53        1.03980   0.00001   0.00005  -0.00095  -0.00090   1.03890
   D54       -1.01750   0.00006   0.00000  -0.00040  -0.00041  -1.01791
   D55       -0.96980   0.00004  -0.00006   0.00064   0.00058  -0.96921
   D56       -3.11852  -0.00002  -0.00000  -0.00004  -0.00004  -3.11856
   D57        1.10737   0.00003  -0.00006   0.00051   0.00045   1.10782
   D58        3.11840   0.00023  -0.00022   0.01655   0.01633   3.13473
   D59       -1.06136   0.00006  -0.00027   0.01586   0.01558  -1.04577
   D60        1.02062   0.00011  -0.00017   0.02230   0.02214   1.04276
   D61        0.98814   0.00024   0.00010   0.01513   0.01522   1.00336
   D62        3.09157   0.00007   0.00005   0.01444   0.01447   3.10604
   D63       -1.10964   0.00012   0.00015   0.02088   0.02103  -1.08861
   D64       -1.05856   0.00010   0.00014   0.01479   0.01493  -1.04363
   D65        1.04486  -0.00006   0.00008   0.01410   0.01419   1.05905
   D66        3.12685  -0.00002   0.00018   0.02054   0.02074  -3.13560
         Item               Value     Threshold  Converged?
 Maximum Force            0.001849     0.000450     NO 
 RMS     Force            0.000289     0.000300     YES
 Maximum Displacement     0.195449     0.001800     NO 
 RMS     Displacement     0.023282     0.001200     NO 
 Predicted change in Energy=-7.055222D-05
 Lowest energy point so far.  Saving SCF results.
 GradGradGradGradGradGradGradGradGradGradGradGradGradGradGradGradGradGrad

 Leave Link  103 at Fri Nov  1 11:03:17 2024, MaxMem=  4294967296 cpu:               0.6 elap:               0.0
 (Enter /home/matma/Software/gaussian16.B01_files/AVX2/tar//g16/l202.exe)
                          Input orientation:                          
 ---------------------------------------------------------------------
 Center     Atomic      Atomic             Coordinates (Angstroms)
 Number     Number       Type             X           Y           Z
 ---------------------------------------------------------------------
      1          8           0       -0.660582    1.140048    0.253899
      2          8           0       -0.855244   -2.484621   -0.322845
      3          8           0        1.958159   -1.983881    0.124555
      4          8           0        2.841416    0.610477   -0.451093
      5          8           0        0.978404    2.699012    0.083287
      6          8           0       -3.421760    0.958332   -0.053664
      7          6           0       -0.361916   -1.247839    0.161812
      8          6           0        1.052276   -1.006141   -0.338474
      9          6           0       -1.241694   -0.061976   -0.220163
     10          6           0        1.581525    0.344651    0.107649
     11          6           0        0.606161    1.437795   -0.316516
     12          6           0       -2.632699   -0.122464    0.375436
     13          1           0       -0.340632   -1.347525    1.252305
     14          1           0        1.033963   -1.007496   -1.443679
     15          1           0       -1.332507   -0.013890   -1.321540
     16          1           0        1.626867    0.349551    1.211615
     17          1           0        0.523716    1.466309   -1.412518
     18          1           0       -2.540736   -0.146216    1.471781
     19          1           0       -3.130900   -1.040513    0.057293
     20          1           0       -1.008257   -2.404198   -1.269488
     21          1           0        1.570574   -2.848160   -0.043934
     22          1           0        3.370764   -0.186297   -0.344115
     23          1           0        1.315697    2.655968    0.982441
     24          1           0       -2.930797    1.760975    0.147756
 ---------------------------------------------------------------------
                    Distance matrix (angstroms):
                    1          2          3          4          5
     1  O    0.000000
     2  O    3.675425   0.000000
     3  O    4.078415   2.892429   0.000000
     4  O    3.611294   4.823005   2.800394   0.000000
     5  O    2.268424   5.513371   4.784466   2.849273   0.000000
     6  O    2.784191   4.302718   6.134485   6.285406   4.733937
     7  C    2.408254   1.417002   2.434316   3.753709   4.168963
     8  C    2.809077   2.413458   1.411027   2.413951   3.729811
     9  C    1.416787   2.455422   3.748548   4.144551   3.555835
    10  C    2.383503   3.758716   2.358856   1.403631   2.430507
    11  C    1.420797   4.185821   3.705443   2.387243   1.374436
    12  C    2.344772   3.037553   4.960221   5.584469   4.591965
    13  H    2.699482   2.009704   2.638410   4.106186   4.413720
    14  H    3.219503   2.647125   2.065630   2.621059   4.009104
    15  H    2.065203   2.707339   4.098846   4.309193   3.830624
    16  H    2.602792   4.067921   2.595450   2.075526   2.685813
    17  H    2.070254   4.324207   4.040301   2.651136   1.990912
    18  H    2.583156   3.395542   5.043024   5.765205   4.733665
    19  H    3.300904   2.721867   5.176194   6.217136   5.556176
    20  H    3.873405   0.962297   3.304489   4.957622   5.640884
    21  H    4.579581   2.468714   0.962075   3.707154   5.580141
    22  H    4.285856   4.810602   2.333756   0.962550   3.772409
    23  H    2.595085   5.730830   4.762030   2.926922   0.961300
    24  H    2.355992   4.749155   6.158440   5.916140   4.020686
                    6          7          8          9         10
     6  O    0.000000
     7  C    3.778394   0.000000
     8  C    4.894616   1.519422   0.000000
     9  C    2.412766   1.525184   2.483494   0.000000
    10  C    5.043361   2.513150   1.517817   2.871127   0.000000
    11  C    4.064865   2.894582   2.484416   2.381840   1.525193
    12  C    1.405298   2.543336   3.856111   1.514363   4.248481
    13  H    4.063974   1.095247   2.141802   2.152374   2.805064
    14  H    5.064592   2.140992   1.105357   2.751293   2.129494
    15  H    2.630153   2.159863   2.763723   1.106160   3.265381
    16  H    5.240246   2.758442   2.137951   3.232334   1.104908
    17  H    4.203725   3.260285   2.746989   2.621838   2.165175
    18  H    2.079234   2.770713   4.114150   2.134780   4.369765
    19  H    2.022941   2.778701   4.201996   2.145604   4.912042
    20  H    4.313912   1.950268   2.658411   2.577127   4.019907
    21  H    6.277968   2.517514   1.936085   3.962667   3.196426
    22  H    6.894412   3.913533   2.459180   4.615797   1.920254
    23  H    5.137994   4.327532   3.901954   3.920934   2.485581
    24  H    0.962211   3.956300   4.874241   2.512287   4.729549
                   11         12         13         14         15
    11  C    0.000000
    12  C    3.661069   0.000000
    13  H    3.334010   2.742854   0.000000
    14  H    2.726346   4.187705   3.045236   0.000000
    15  H    2.622193   2.140564   3.063834   2.569504   0.000000
    16  H    2.135720   4.366452   2.598611   3.040345   3.912398
    17  H    1.099468   3.960295   3.970647   2.526071   2.375884
    18  H    3.950957   1.100452   2.516301   4.692568   3.046305
    19  H    4.499707   1.091893   3.050886   4.427199   2.487841
    20  H    4.274975   3.248215   2.814556   2.480279   2.412762
    21  H    4.401569   5.027206   2.754061   2.373875   4.253615
    22  H    3.206473   6.046768   4.203745   2.709990   4.806853
    23  H    1.916945   4.866002   4.340992   4.402999   4.410154
    24  H    3.581909   1.920428   4.194254   5.090818   2.804195
                   16         17         18         19         20
    16  H    0.000000
    17  H    3.057804   0.000000
    18  H    4.205043   4.506693   0.000000
    19  H    5.089311   4.669123   1.774496   0.000000
    20  H    4.547844   4.165120   3.868015   2.850544   0.000000
    21  H    3.435831   4.645813   5.147890   5.038025   2.889542
    22  H    2.397625   3.460965   6.184248   6.569813   4.995120
    23  H    2.338569   2.788970   4.792053   5.855945   6.006433
    24  H    4.888376   3.801966   2.354267   2.810082   4.801397
                   21         22         23         24
    21  H    0.000000
    22  H    3.227431   0.000000
    23  H    5.604805   3.749870   0.000000
    24  H    6.445403   6.613886   4.419325   0.000000
 Stoichiometry    C6H12O6
 Framework group  C1[X(C6H12O6)]
 Deg. of freedom    66
 Full point group                 C1      NOp   1
 RotChk:  IX=0 Diff= 4.65D-03
 Largest Abelian subgroup         C1      NOp   1
 Largest concise Abelian subgroup C1      NOp   1
                         Standard orientation:                         
 ---------------------------------------------------------------------
 Center     Atomic      Atomic             Coordinates (Angstroms)
 Number     Number       Type             X           Y           Z
 ---------------------------------------------------------------------
      1          8           0       -0.707057   -1.114396   -0.231754
      2          8           0       -0.730859    2.534299    0.210075
      3          8           0        2.036505    1.901186   -0.344014
      4          8           0        2.842301   -0.704076    0.292786
      5          8           0        0.875100   -2.732327   -0.074187
      6          8           0       -3.441466   -0.807213    0.192946
      7          6           0       -0.310097    1.260865   -0.247331
      8          6           0        1.115266    0.979805    0.197629
      9          6           0       -1.217310    0.127567    0.220414
     10          6           0        1.569170   -0.407501   -0.218450
     11          6           0        0.572195   -1.442688    0.292081
     12          6           0       -2.631163    0.223166   -0.313602
     13          1           0       -0.335909    1.318623   -1.340749
     14          1           0        1.148734    1.023360    1.301620
     15          1           0       -1.258343    0.124614    1.325809
     16          1           0        1.562599   -0.455667   -1.322288
     17          1           0        0.540037   -1.426648    1.390962
     18          1           0       -2.589710    0.201966   -1.413069
     19          1           0       -3.077197    1.172321   -0.009644
     20          1           0       -0.842492    2.495829    1.165101
     21          1           0        1.691750    2.786467   -0.192324
     22          1           0        3.397199    0.065547    0.130704
     23          1           0        1.171409   -2.737020   -0.988669
     24          1           0       -2.992628   -1.636467    0.001285
 ---------------------------------------------------------------------
 Rotational constants (GHZ):           1.1729944           0.7953801           0.4958125
 Leave Link  202 at Fri Nov  1 11:03:17 2024, MaxMem=  4294967296 cpu:               0.1 elap:               0.0
 (Enter /home/matma/Software/gaussian16.B01_files/AVX2/tar//g16/l301.exe)
 Standard basis: 6-311+G(d,p) (5D, 7F)
 Ernie: Thresh=  0.10000D-02 Tol=  0.10000D-05 Strict=F.
 There are   348 symmetry adapted cartesian basis functions of A   symmetry.
 There are   336 symmetry adapted basis functions of A   symmetry.
   336 basis functions,   528 primitive gaussians,   348 cartesian basis functions
    48 alpha electrons       48 beta electrons
       nuclear repulsion energy       828.3386521230 Hartrees.
 IExCor= 1009 DFT=T Ex+Corr=PBE1PBE ExCW=0 ScaHFX=  0.250000
 ScaDFX=  0.750000  0.750000  1.000000  1.000000 ScalE2=  1.000000  1.000000
 IRadAn=  99590 IRanWt=     -1 IRanGd=            0 ICorTp=0 IEmpDi=131
 NAtoms=   24 NActive=   24 NUniq=   24 SFac= 1.00D+00 NAtFMM=   60 NAOKFM=F Big=F
 Integral buffers will be    131072 words long.
 Raffenetti 2 integral format.
 Two-electron integral symmetry is turned on.
 R6Disp:  Grimme-D3 Dispersion energy=       -0.0157082097 Hartrees.
 Nuclear repulsion after empirical dispersion term =      828.3229439134 Hartrees.
 Leave Link  301 at Fri Nov  1 11:03:17 2024, MaxMem=  4294967296 cpu:               0.7 elap:               0.1
 (Enter /home/matma/Software/gaussian16.B01_files/AVX2/tar//g16/l302.exe)
 NPDir=0 NMtPBC=     1 NCelOv=     1 NCel=       1 NClECP=     1 NCelD=      1
         NCelK=      1 NCelE2=     1 NClLst=     1 CellRange=     0.0.
 One-electron integrals computed using PRISM.
 One-electron integral symmetry used in STVInt
 NBasis=   336 RedAO= T EigKep=  7.73D-06  NBF=   336
 NBsUse=   336 1.00D-06 EigRej= -1.00D+00 NBFU=   336
 Precomputing XC quadrature grid using
 IXCGrd= 4 IRadAn=       99590 IRanWt=          -1 IRanGd=           0 AccXCQ= 0.00D+00.
 Generated NRdTot=       0 NPtTot=           0 NUsed=           0 NTot=          32
 NSgBfM=   348   348   348   348   348 MxSgAt=    24 MxSgA2=    24.
 Leave Link  302 at Fri Nov  1 11:03:18 2024, MaxMem=  4294967296 cpu:               5.3 elap:               0.2
 (Enter /home/matma/Software/gaussian16.B01_files/AVX2/tar//g16/l303.exe)
 DipDrv:  MaxL=1.
 Leave Link  303 at Fri Nov  1 11:03:18 2024, MaxMem=  4294967296 cpu:               0.8 elap:               0.0
 (Enter /home/matma/Software/gaussian16.B01_files/AVX2/tar//g16/l401.exe)
 Initial guess from the checkpoint file:  "input.chk"
 B after Tr=    -0.000000    0.000000    0.000000
         Rot=    1.000000   -0.000165    0.000318   -0.000830 Ang=  -0.10 deg.
 Guess basis will be translated and rotated to current coordinates.
 JPrj=2 DoOrth=T DoCkMO=T.
 Generating alternative initial guess.
 ExpMin= 4.38D-02 ExpMax= 8.59D+03 ExpMxC= 1.30D+03 IAcc=4 IRadAn=    199590 AccDes= 0.00D+00
 Harris functional with IExCor= 1009 and IRadAn=  199590 diagonalized for initial guess.
 HarFok:  IExCor= 1009 AccDes= 0.00D+00 IRadAn=    199590 IDoV= 1 UseB2=F ITyADJ=14
 ICtDFT=  3500011 ScaDFX=  1.000000  1.000000  1.000000  1.000000
 FoFCou: FMM=F IPFlag=           0 FMFlag=      100000 FMFlg1=           0
         NFxFlg=           0 DoJE=T BraDBF=F KetDBF=T FulRan=T
         wScrn=  0.000000 ICntrl=       500 IOpCl=  0 I1Cent=   200000004 NGrid=           0
         NMat0=    1 NMatS0=      1 NMatT0=    0 NMatD0=    1 NMtDS0=    0 NMtDT0=    0
 Petite list used in FoFCou.
 Harris En= -686.792247860502    
 Leave Link  401 at Fri Nov  1 11:03:19 2024, MaxMem=  4294967296 cpu:              40.3 elap:               1.5
 (Enter /home/matma/Software/gaussian16.B01_files/AVX2/tar//g16/l502.exe)
 Integral symmetry usage will be decided dynamically.
 Closed shell SCF:
 Using DIIS extrapolation, IDIIS=  1040.
 NGot=  4294967296 LenX=  4294711890 LenY=  4294590345
 Requested convergence on RMS density matrix=1.00D-08 within 128 cycles.
 Requested convergence on MAX density matrix=1.00D-06.
 Requested convergence on             energy=1.00D-06.
 No special actions if energy rises.
 Fock matrices will be formed incrementally for  20 cycles.

 Cycle   1  Pass 1  IDiag  1:
 FoFJK:  IHMeth= 1 ICntrl=       0 DoSepK=F KAlg= 0 I1Cent=           0 FoldK=F
 IRaf= 920000000 NMat=       1 IRICut=       1 DoRegI=T DoRafI=F ISym2E= 0 IDoP0=0 IntGTp=1.
 FoFCou: FMM=F IPFlag=           0 FMFlag=      100000 FMFlg1=           0
         NFxFlg=           0 DoJE=F BraDBF=F KetDBF=F FulRan=T
         wScrn=  0.000000 ICntrl=         0 IOpCl=  0 I1Cent=           0 NGrid=           0
         NMat0=    1 NMatS0=      1 NMatT0=    0 NMatD0=    1 NMtDS0=    0 NMtDT0=    0
 Symmetry not used in FoFCou.
 E= -686.658847796352    
 DIIS: error= 1.98D-03 at cycle   1 NSaved=   1.
 NSaved= 1 IEnMin= 1 EnMin= -686.658847796352     IErMin= 1 ErrMin= 1.98D-03
 ErrMax= 1.98D-03  0.00D+00 EMaxC= 1.00D-01 BMatC= 2.34D-03 BMatP= 2.34D-03
 IDIUse=3 WtCom= 9.80D-01 WtEn= 1.98D-02
 Coeff-Com:  0.100D+01
 Coeff-En:   0.100D+01
 Coeff:      0.100D+01
 Gap=     0.606 Goal=   None    Shift=    0.000
 GapD=    0.606 DampG=2.000 DampE=1.000 DampFc=2.0000 IDamp=-1.
 RMSDP=9.29D-04 MaxDP=8.95D-02              OVMax= 2.09D-02

 Cycle   2  Pass 1  IDiag  1:
 RMSU=  9.05D-04    CP:  1.01D+00
 E= -686.661711941130     Delta-E=       -0.002864144778 Rises=F Damp=F
 DIIS: error= 2.30D-04 at cycle   2 NSaved=   2.
 NSaved= 2 IEnMin= 2 EnMin= -686.661711941130     IErMin= 2 ErrMin= 2.30D-04
 ErrMax= 2.30D-04  0.00D+00 EMaxC= 1.00D-01 BMatC= 4.15D-05 BMatP= 2.34D-03
 IDIUse=3 WtCom= 9.98D-01 WtEn= 2.30D-03
 Coeff-Com: -0.504D-01 0.105D+01
 Coeff-En:   0.000D+00 0.100D+01
 Coeff:     -0.503D-01 0.105D+01
 Gap=     0.278 Goal=   None    Shift=    0.000
 RMSDP=1.03D-04 MaxDP=9.81D-03 DE=-2.86D-03 OVMax= 2.96D-03

 Cycle   3  Pass 1  IDiag  1:
 RMSU=  7.97D-05    CP:  1.01D+00  1.07D+00
 E= -686.661730061651     Delta-E=       -0.000018120522 Rises=F Damp=F
 DIIS: error= 2.09D-04 at cycle   3 NSaved=   3.
 NSaved= 3 IEnMin= 3 EnMin= -686.661730061651     IErMin= 3 ErrMin= 2.09D-04
 ErrMax= 2.09D-04  0.00D+00 EMaxC= 1.00D-01 BMatC= 3.96D-05 BMatP= 4.15D-05
 IDIUse=3 WtCom= 9.98D-01 WtEn= 2.09D-03
 Coeff-Com: -0.372D-01 0.546D+00 0.491D+00
 Coeff-En:   0.000D+00 0.267D+00 0.733D+00
 Coeff:     -0.371D-01 0.545D+00 0.492D+00
 Gap=     0.278 Goal=   None    Shift=    0.000
 RMSDP=3.75D-05 MaxDP=3.35D-03 DE=-1.81D-05 OVMax= 1.37D-03

 Cycle   4  Pass 1  IDiag  1:
 RMSU=  3.05D-05    CP:  1.01D+00  1.08D+00  7.38D-01
 E= -686.661755754753     Delta-E=       -0.000025693101 Rises=F Damp=F
 DIIS: error= 4.87D-05 at cycle   4 NSaved=   4.
 NSaved= 4 IEnMin= 4 EnMin= -686.661755754753     IErMin= 4 ErrMin= 4.87D-05
 ErrMax= 4.87D-05  0.00D+00 EMaxC= 1.00D-01 BMatC= 2.26D-06 BMatP= 3.96D-05
 IDIUse=1 WtCom= 1.00D+00 WtEn= 0.00D+00
 Coeff-Com: -0.695D-02 0.844D-01 0.214D+00 0.709D+00
 Coeff:     -0.695D-02 0.844D-01 0.214D+00 0.709D+00
 Gap=     0.278 Goal=   None    Shift=    0.000
 RMSDP=9.71D-06 MaxDP=7.25D-04 DE=-2.57D-05 OVMax= 3.50D-04

 Cycle   5  Pass 1  IDiag  1:
 RMSU=  7.28D-06    CP:  1.01D+00  1.08D+00  7.46D-01  8.09D-01
 E= -686.661757257590     Delta-E=       -0.000001502838 Rises=F Damp=F
 DIIS: error= 1.09D-05 at cycle   5 NSaved=   5.
 NSaved= 5 IEnMin= 5 EnMin= -686.661757257590     IErMin= 5 ErrMin= 1.09D-05
 ErrMax= 1.09D-05  0.00D+00 EMaxC= 1.00D-01 BMatC= 1.17D-07 BMatP= 2.26D-06
 IDIUse=1 WtCom= 1.00D+00 WtEn= 0.00D+00
 Coeff-Com: -0.967D-03 0.398D-02 0.631D-01 0.293D+00 0.641D+00
 Coeff:     -0.967D-03 0.398D-02 0.631D-01 0.293D+00 0.641D+00
 Gap=     0.278 Goal=   None    Shift=    0.000
 RMSDP=3.31D-06 MaxDP=2.56D-04 DE=-1.50D-06 OVMax= 7.13D-05

 Cycle   6  Pass 1  IDiag  1:
 RMSU=  2.51D-06    CP:  1.01D+00  1.08D+00  7.50D-01  8.15D-01  8.55D-01
 E= -686.661757331343     Delta-E=       -0.000000073753 Rises=F Damp=F
 DIIS: error= 5.67D-06 at cycle   6 NSaved=   6.
 NSaved= 6 IEnMin= 6 EnMin= -686.661757331343     IErMin= 6 ErrMin= 5.67D-06
 ErrMax= 5.67D-06  0.00D+00 EMaxC= 1.00D-01 BMatC= 2.65D-08 BMatP= 1.17D-07
 IDIUse=1 WtCom= 1.00D+00 WtEn= 0.00D+00
 Coeff-Com:  0.438D-03-0.112D-01 0.752D-02 0.790D-01 0.365D+00 0.560D+00
 Coeff:      0.438D-03-0.112D-01 0.752D-02 0.790D-01 0.365D+00 0.560D+00
 Gap=     0.278 Goal=   None    Shift=    0.000
 RMSDP=1.26D-06 MaxDP=9.42D-05 DE=-7.38D-08 OVMax= 2.38D-05

 Cycle   7  Pass 1  IDiag  1:
 RMSU=  7.96D-07    CP:  1.01D+00  1.08D+00  7.52D-01  8.20D-01  8.73D-01
                    CP:  7.29D-01
 E= -686.661757350386     Delta-E=       -0.000000019043 Rises=F Damp=F
 DIIS: error= 1.08D-06 at cycle   7 NSaved=   7.
 NSaved= 7 IEnMin= 7 EnMin= -686.661757350386     IErMin= 7 ErrMin= 1.08D-06
 ErrMax= 1.08D-06  0.00D+00 EMaxC= 1.00D-01 BMatC= 1.24D-09 BMatP= 2.65D-08
 IDIUse=1 WtCom= 1.00D+00 WtEn= 0.00D+00
 Coeff-Com:  0.278D-03-0.603D-02 0.229D-03 0.242D-01 0.143D+00 0.277D+00
 Coeff-Com:  0.561D+00
 Coeff:      0.278D-03-0.603D-02 0.229D-03 0.242D-01 0.143D+00 0.277D+00
 Coeff:      0.561D+00
 Gap=     0.278 Goal=   None    Shift=    0.000
 RMSDP=2.42D-07 MaxDP=1.31D-05 DE=-1.90D-08 OVMax= 5.25D-06

 Cycle   8  Pass 1  IDiag  1:
 RMSU=  2.11D-07    CP:  1.01D+00  1.08D+00  7.52D-01  8.23D-01  8.78D-01
                    CP:  7.45D-01  9.45D-01
 E= -686.661757351293     Delta-E=       -0.000000000906 Rises=F Damp=F
 DIIS: error= 2.56D-07 at cycle   8 NSaved=   8.
 NSaved= 8 IEnMin= 8 EnMin= -686.661757351293     IErMin= 8 ErrMin= 2.56D-07
 ErrMax= 2.56D-07  0.00D+00 EMaxC= 1.00D-01 BMatC= 7.52D-11 BMatP= 1.24D-09
 IDIUse=1 WtCom= 1.00D+00 WtEn= 0.00D+00
 Coeff-Com:  0.525D-04-0.855D-03-0.809D-03-0.333D-03 0.449D-02 0.298D-01
 Coeff-Com:  0.211D+00 0.757D+00
 Coeff:      0.525D-04-0.855D-03-0.809D-03-0.333D-03 0.449D-02 0.298D-01
 Coeff:      0.211D+00 0.757D+00
 Gap=     0.278 Goal=   None    Shift=    0.000
 RMSDP=1.01D-07 MaxDP=1.12D-05 DE=-9.06D-10 OVMax= 2.64D-06

 Cycle   9  Pass 1  IDiag  1:
 RMSU=  6.27D-08    CP:  1.01D+00  1.08D+00  7.52D-01  8.24D-01  8.78D-01
                    CP:  7.65D-01  9.93D-01  9.59D-01
 E= -686.661757351360     Delta-E=       -0.000000000068 Rises=F Damp=F
 DIIS: error= 7.48D-08 at cycle   9 NSaved=   9.
 NSaved= 9 IEnMin= 9 EnMin= -686.661757351360     IErMin= 9 ErrMin= 7.48D-08
 ErrMax= 7.48D-08  0.00D+00 EMaxC= 1.00D-01 BMatC= 4.86D-12 BMatP= 7.52D-11
 IDIUse=1 WtCom= 1.00D+00 WtEn= 0.00D+00
 Coeff-Com:  0.532D-05 0.683D-05-0.283D-03-0.128D-02-0.598D-02-0.494D-02
 Coeff-Com:  0.479D-01 0.282D+00 0.682D+00
 Coeff:      0.532D-05 0.683D-05-0.283D-03-0.128D-02-0.598D-02-0.494D-02
 Coeff:      0.479D-01 0.282D+00 0.682D+00
 Gap=     0.278 Goal=   None    Shift=    0.000
 RMSDP=2.84D-08 MaxDP=2.63D-06 DE=-6.75D-11 OVMax= 5.25D-07

 Cycle  10  Pass 1  IDiag  1:
 RMSU=  1.81D-08    CP:  1.01D+00  1.08D+00  7.52D-01  8.23D-01  8.78D-01
                    CP:  7.67D-01  1.01D+00  9.84D-01  8.97D-01
 E= -686.661757351371     Delta-E=       -0.000000000011 Rises=F Damp=F
 DIIS: error= 2.98D-08 at cycle  10 NSaved=  10.
 NSaved=10 IEnMin=10 EnMin= -686.661757351371     IErMin=10 ErrMin= 2.98D-08
 ErrMax= 2.98D-08  0.00D+00 EMaxC= 1.00D-01 BMatC= 8.83D-13 BMatP= 4.86D-12
 IDIUse=1 WtCom= 1.00D+00 WtEn= 0.00D+00
 Coeff-Com: -0.113D-05 0.686D-04-0.865D-04-0.653D-03-0.344D-02-0.501D-02
 Coeff-Com:  0.878D-02 0.875D-01 0.353D+00 0.560D+00
 Coeff:     -0.113D-05 0.686D-04-0.865D-04-0.653D-03-0.344D-02-0.501D-02
 Coeff:      0.878D-02 0.875D-01 0.353D+00 0.560D+00
 Gap=     0.278 Goal=   None    Shift=    0.000
 RMSDP=8.03D-09 MaxDP=7.18D-07 DE=-1.07D-11 OVMax= 1.35D-07

 SCF Done:  E(RPBE1PBE) =  -686.661757351     A.U. after   10 cycles
            NFock= 10  Conv=0.80D-08     -V/T= 2.0032
 KE= 6.844627811732D+02 PE=-3.269926347616D+03 EE= 1.070478865178D+03
 Leave Link  502 at Fri Nov  1 11:03:34 2024, MaxMem=  4294967296 cpu:             404.5 elap:              14.5
 (Enter /home/matma/Software/gaussian16.B01_files/AVX2/tar//g16/l701.exe)
 ... and contract with generalized density number  0.
 Compute integral first derivatives.
 R6Disp: Adding Grimme-D3 dispersion energy 1st derivatives to the gradient.
 Leave Link  701 at Fri Nov  1 11:03:34 2024, MaxMem=  4294967296 cpu:               4.1 elap:               0.2
 (Enter /home/matma/Software/gaussian16.B01_files/AVX2/tar//g16/l702.exe)
 L702 exits ... SP integral derivatives will be done elsewhere.
 Leave Link  702 at Fri Nov  1 11:03:34 2024, MaxMem=  4294967296 cpu:               0.3 elap:               0.0
 (Enter /home/matma/Software/gaussian16.B01_files/AVX2/tar//g16/l703.exe)
 Integral derivatives from FoFJK, PRISM(SPDF).
 Compute integral first derivatives, UseDBF=F ICtDFT=           0.
 Calling FoFJK, ICntrl=      2127 FMM=F ISym2X=0 I1Cent= 0 IOpClX= 0 NMat=1 NMatS=1 NMatT=0.
 FoFJK:  IHMeth= 1 ICntrl=    2127 DoSepK=F KAlg= 0 I1Cent=           0 FoldK=F
 IRaf=         0 NMat=       1 IRICut=       1 DoRegI=T DoRafI=F ISym2E= 0 IDoP0=0 IntGTp=1.
 FoFCou: FMM=F IPFlag=           0 FMFlag=      100000 FMFlg1=         800
         NFxFlg=           0 DoJE=F BraDBF=F KetDBF=F FulRan=T
         wScrn=  0.000000 ICntrl=      2127 IOpCl=  0 I1Cent=           0 NGrid=           0
         NMat0=    1 NMatS0=      1 NMatT0=    0 NMatD0=    1 NMtDS0=    0 NMtDT0=    0
 Symmetry not used in FoFCou.
 Leave Link  703 at Fri Nov  1 11:03:38 2024, MaxMem=  4294967296 cpu:             125.7 elap:               4.5
 (Enter /home/matma/Software/gaussian16.B01_files/AVX2/tar//g16/l716.exe)
 Dipole        = 3.66253706D-01 9.70007435D-01-4.78893057D-02
 ***** Axes restored to original set *****
 -------------------------------------------------------------------
 Center     Atomic                   Forces (Hartrees/Bohr)
 Number     Number              X              Y              Z
 -------------------------------------------------------------------
      1        8          -0.000507720   -0.000308621    0.000013213
      2        8          -0.000037198   -0.000038071    0.000117819
      3        8          -0.000173240    0.000036991   -0.000037450
      4        8           0.000043658   -0.000768837   -0.000030705
      5        8           0.000533338   -0.000491248   -0.000486143
      6        8          -0.000028941   -0.000012453    0.000009993
      7        6           0.000097685   -0.000096717   -0.000100740
      8        6           0.000175605   -0.000221845    0.000147879
      9        6           0.000021288    0.000072352    0.000117476
     10        6           0.000437448    0.000415425   -0.000213150
     11        6          -0.000096741    0.000642009    0.000414575
     12        6          -0.000002693    0.000017570   -0.000035950
     13        1           0.000008219    0.000046083    0.000013054
     14        1          -0.000068968    0.000100365   -0.000154728
     15        1           0.000013036    0.000005275   -0.000021504
     16        1           0.000087298   -0.000212066   -0.000401523
     17        1          -0.000244895    0.000246836    0.000135892
     18        1           0.000000291   -0.000006870    0.000001794
     19        1          -0.000006253   -0.000001226    0.000004311
     20        1           0.000010676    0.000014485    0.000003709
     21        1          -0.000042197    0.000023186   -0.000019043
     22        1           0.000143119    0.000403832    0.000403634
     23        1          -0.000388091    0.000141953    0.000126594
     24        1           0.000025275   -0.000008410   -0.000009006
 -------------------------------------------------------------------
 Cartesian Forces:  Max     0.000768837 RMS     0.000231147
 Leave Link  716 at Fri Nov  1 11:03:38 2024, MaxMem=  4294967296 cpu:               0.3 elap:               0.0
 (Enter /home/matma/Software/gaussian16.B01_files/AVX2/tar//g16/l103.exe)

 GradGradGradGradGradGradGradGradGradGradGradGradGradGradGradGradGradGrad
 Berny optimization.
 Using GEDIIS/GDIIS optimizer.
 FormGI is forming the generalized inverse of G from B-inverse, IUseBI=4.
 Internal  Forces:  Max     0.000539679 RMS     0.000133202
 Search for a local minimum.
 Step number  10 out of a maximum of  142
 All quantities printed in internal units (Hartrees-Bohrs-Radians)
 RMS Force = .13320D-03 SwitMx=.10000D-02 MixMth= 2
 Mixed Optimization -- En-DIIS/RFO-DIIS
 Swapping is turned off.
 Update second derivatives using D2CorX and points    7    9   10
 DE= -2.56D-05 DEPred=-7.06D-05 R= 3.63D-01
 Trust test= 3.63D-01 RLast= 2.44D-01 DXMaxT set to 1.20D+00
 ITU=  0  1 -1  1  0  1  0  1  1  0
     Eigenvalues ---    0.00234   0.00312   0.00338   0.00424   0.00555
     Eigenvalues ---    0.00701   0.00778   0.00836   0.01369   0.02347
     Eigenvalues ---    0.02444   0.03667   0.04158   0.04656   0.04939
     Eigenvalues ---    0.05098   0.05350   0.05649   0.05832   0.05959
     Eigenvalues ---    0.06206   0.06459   0.06760   0.07030   0.07157
     Eigenvalues ---    0.08541   0.09515   0.09850   0.10794   0.12203
     Eigenvalues ---    0.14061   0.14423   0.15800   0.15973   0.16864
     Eigenvalues ---    0.17155   0.17651   0.18316   0.19566   0.20446
     Eigenvalues ---    0.20606   0.23886   0.24294   0.25447   0.26492
     Eigenvalues ---    0.28729   0.29817   0.29835   0.31394   0.31695
     Eigenvalues ---    0.32907   0.33052   0.33286   0.33729   0.33898
     Eigenvalues ---    0.34315   0.36468   0.37016   0.38643   0.39749
     Eigenvalues ---    0.40138   0.49720   0.49827   0.49852   0.49923
     Eigenvalues ---    0.50220
 En-DIIS/RFO-DIIS/Sim-DIIS IScMMF=       -3 using points:    10    9
 RFO step:  Lambda=-7.59418280D-05.
 NNeg= 0 NGDIIS= 2 SimSw=  2.50D-03 Rises=F DC= -2.56D-05 SmlDif=  1.00D-05
 NRisDI= 0 DoIntr=F SqrtH=F CThrHd= 10.0 CDAdj=  3.0
 RMS Error=  0.1263772216D-01 NUsed= 2 OKEnD=T EnDIS=F
 InvSVX:  RCond= 6.03D-02 Info=           0 Equed=N FErr=  1.44D-15 BErr=  7.81D-17
 DidBck=T Rises=F RFO-DIIS coefs:    0.44848    0.55152
 Iteration  1 RMS(Cart)=  0.01208066 RMS(Int)=  0.00049629
 Iteration  2 RMS(Cart)=  0.00047187 RMS(Int)=  0.00000770
 Iteration  3 RMS(Cart)=  0.00000054 RMS(Int)=  0.00000769
 ITry= 1 IFail=0 DXMaxC= 1.18D-01 DCOld= 1.00D+10 DXMaxT= 1.20D+00 DXLimC= 3.00D+00 Rises=F
 Variable       Old X    -DE/DX   Delta X   Delta X   Delta X     New X
                                 (Linear)    (Quad)   (Total)
    R1        2.67734  -0.00014   0.00013   0.00016   0.00029   2.67763
    R2        2.68492   0.00043   0.00130  -0.00084   0.00046   2.68538
    R3        2.67775  -0.00001  -0.00002   0.00011   0.00009   2.67783
    R4        1.81848  -0.00001   0.00007  -0.00006   0.00001   1.81849
    R5        2.66646  -0.00020   0.00044  -0.00089  -0.00045   2.66601
    R6        1.81806   0.00000   0.00036  -0.00053  -0.00017   1.81789
    R7        2.65248  -0.00005   0.00207  -0.00390  -0.00182   2.65066
    R8        1.81896  -0.00021  -0.00021  -0.00000  -0.00021   1.81874
    R9        2.59731  -0.00039  -0.00111   0.00022  -0.00089   2.59642
   R10        1.81659  -0.00003   0.00053   0.00004   0.00057   1.81717
   R11        2.65563  -0.00001  -0.00005   0.00021   0.00016   2.65579
   R12        1.81832   0.00001   0.00002  -0.00007  -0.00005   1.81826
   R13        2.87129   0.00004  -0.00092   0.00044  -0.00048   2.87081
   R14        2.88218   0.00003   0.00003  -0.00030  -0.00027   2.88191
   R15        2.06972   0.00001  -0.00010   0.00018   0.00008   2.06979
   R16        2.86826   0.00018   0.00036  -0.00015   0.00021   2.86847
   R17        2.08882   0.00016  -0.00026   0.00057   0.00031   2.08913
   R18        2.86173   0.00000   0.00005  -0.00017  -0.00012   2.86161
   R19        2.09034   0.00002   0.00001  -0.00013  -0.00011   2.09023
   R20        2.88220   0.00054   0.00081   0.00033   0.00115   2.88335
   R21        2.08797  -0.00040   0.00043  -0.00107  -0.00064   2.08734
   R22        2.07769  -0.00011  -0.00064   0.00015  -0.00049   2.07721
   R23        2.07955   0.00000   0.00000   0.00003   0.00003   2.07958
   R24        2.06338   0.00000  -0.00002  -0.00000  -0.00003   2.06335
    A1        1.99232   0.00003   0.00376  -0.00218   0.00162   1.99394
    A2        1.89534  -0.00003   0.00016  -0.00033  -0.00017   1.89518
    A3        1.88219  -0.00009  -0.00073   0.00115   0.00042   1.88261
    A4        1.86776   0.00020  -0.00123   0.00073  -0.00050   1.86726
    A5        1.90289   0.00014  -0.00210   0.00015  -0.00195   1.90094
    A6        1.86621  -0.00004  -0.00007   0.00018   0.00010   1.86631
    A7        1.92865   0.00001  -0.00063   0.00166   0.00103   1.92967
    A8        1.97376  -0.00005  -0.00017  -0.00006  -0.00023   1.97354
    A9        1.84198  -0.00000   0.00059  -0.00101  -0.00042   1.84156
   A10        1.90788   0.00011  -0.00213   0.00173  -0.00038   1.90750
   A11        1.90099  -0.00004   0.00187  -0.00196  -0.00010   1.90089
   A12        1.90852  -0.00002   0.00070  -0.00059   0.00010   1.90861
   A13        1.95980  -0.00018   0.00198  -0.00232  -0.00035   1.95945
   A14        1.87168   0.00009  -0.00090   0.00062  -0.00028   1.87140
   A15        1.91547   0.00005  -0.00122   0.00203   0.00081   1.91628
   A16        1.94909   0.00007   0.00002   0.00027   0.00030   1.94939
   A17        1.88978   0.00003  -0.00264   0.00328   0.00064   1.89042
   A18        1.87628  -0.00005   0.00283  -0.00398  -0.00115   1.87513
   A19        1.91693   0.00002   0.00104  -0.00115  -0.00009   1.91684
   A20        1.85359  -0.00003  -0.00043   0.00046   0.00002   1.85361
   A21        1.90705   0.00001  -0.00024  -0.00013  -0.00037   1.90667
   A22        1.98263   0.00001  -0.00005   0.00047   0.00041   1.98304
   A23        1.90765  -0.00001  -0.00035   0.00046   0.00011   1.90776
   A24        1.89434  -0.00000   0.00002  -0.00013  -0.00011   1.89423
   A25        1.94392  -0.00006   0.00023  -0.00197  -0.00176   1.94216
   A26        1.90453   0.00041  -0.00295   0.00508   0.00212   1.90665
   A27        1.93912  -0.00019   0.00305  -0.00363  -0.00057   1.93855
   A28        1.91041  -0.00013   0.00155  -0.00056   0.00102   1.91143
   A29        1.88802   0.00001   0.00016  -0.00095  -0.00080   1.88723
   A30        1.87647  -0.00004  -0.00209   0.00213   0.00004   1.87651
   A31        1.89334   0.00020  -0.00029   0.00170   0.00139   1.89474
   A32        1.88421  -0.00003   0.00238  -0.00225   0.00017   1.88439
   A33        1.91643  -0.00012   0.00144  -0.00008   0.00136   1.91778
   A34        1.98623  -0.00004  -0.00141   0.00097  -0.00046   1.98578
   A35        1.86135  -0.00018  -0.00208  -0.00173  -0.00380   1.85755
   A36        1.92173   0.00018  -0.00002   0.00142   0.00140   1.92313
   A37        1.94437  -0.00001  -0.00010   0.00030   0.00020   1.94457
   A38        1.94736   0.00001  -0.00018   0.00020   0.00002   1.94738
   A39        1.87704  -0.00000  -0.00001  -0.00004  -0.00006   1.87698
   A40        1.89224  -0.00001  -0.00009   0.00022   0.00013   1.89237
   A41        1.91569   0.00002   0.00023  -0.00042  -0.00018   1.91550
   A42        1.88627  -0.00000   0.00016  -0.00029  -0.00014   1.88613
    D1        1.09965  -0.00000  -0.00473   0.00417  -0.00054   1.09911
    D2       -3.03285   0.00000  -0.00444   0.00436  -0.00008  -3.03293
    D3       -0.99274  -0.00001  -0.00478   0.00439  -0.00039  -0.99312
    D4        3.00413  -0.00004   0.01177  -0.00875   0.00302   3.00716
    D5       -1.11911   0.00001   0.01135  -0.00791   0.00343  -1.11569
    D6        0.97619   0.00014   0.01363  -0.00760   0.00603   0.98222
    D7       -1.22501  -0.00005  -0.00242   0.00830   0.00587  -1.21913
    D8        0.92011   0.00006  -0.00579   0.01176   0.00598   0.92610
    D9        3.00572  -0.00000  -0.00465   0.01035   0.00570   3.01143
   D10        0.85739  -0.00003  -0.01214   0.02065   0.00851   0.86590
   D11        3.00472   0.00001  -0.01147   0.01994   0.00847   3.01319
   D12       -1.24541   0.00002  -0.00925   0.01664   0.00738  -1.23802
   D13       -0.80227  -0.00023   0.00917  -0.01783  -0.00865  -0.81091
   D14       -2.91331  -0.00031   0.00904  -0.01924  -0.01020  -2.92351
   D15        1.30388  -0.00039   0.01163  -0.02286  -0.01124   1.29264
   D16        1.37388  -0.00017  -0.07162  -0.01230  -0.08390   1.28998
   D17       -0.72366  -0.00024  -0.07353  -0.01127  -0.08481  -0.80848
   D18       -2.84608  -0.00031  -0.07119  -0.01245  -0.08364  -2.92971
   D19       -0.93918   0.00002   0.00139  -0.00090   0.00049  -0.93869
   D20        1.17836   0.00001   0.00108  -0.00026   0.00082   1.17917
   D21       -3.03912   0.00000   0.00117  -0.00054   0.00063  -3.03849
   D22       -1.08861   0.00008   0.00424  -0.00314   0.00110  -1.08751
   D23        3.09142   0.00003   0.00398  -0.00250   0.00149   3.09291
   D24        1.02897   0.00004   0.00216   0.00016   0.00232   1.03130
   D25        3.01155   0.00007   0.00637  -0.00543   0.00094   3.01249
   D26        0.90839   0.00002   0.00612  -0.00479   0.00134   0.90973
   D27       -1.15405   0.00003   0.00430  -0.00213   0.00217  -1.15188
   D28        0.92722   0.00005   0.00568  -0.00456   0.00111   0.92833
   D29       -1.17594   0.00001   0.00543  -0.00392   0.00150  -1.17443
   D30        3.04480   0.00001   0.00360  -0.00126   0.00234   3.04714
   D31       -3.10332  -0.00007  -0.00086  -0.00119  -0.00206  -3.10538
   D32        1.10700  -0.00005  -0.00100  -0.00128  -0.00229   1.10472
   D33       -1.01130  -0.00005  -0.00073  -0.00177  -0.00250  -1.01381
   D34       -0.94672  -0.00002  -0.00337   0.00221  -0.00117  -0.94789
   D35       -3.01959   0.00000  -0.00351   0.00212  -0.00140  -3.02098
   D36        1.14529   0.00000  -0.00325   0.00163  -0.00162   1.14368
   D37        1.13295  -0.00001  -0.00195   0.00049  -0.00146   1.13149
   D38       -0.93991   0.00000  -0.00210   0.00040  -0.00169  -0.94160
   D39       -3.05822   0.00000  -0.00183  -0.00008  -0.00191  -3.06012
   D40        1.07585  -0.00019  -0.00054  -0.00047  -0.00102   1.07483
   D41       -3.09974   0.00020  -0.00305   0.00424   0.00118  -3.09856
   D42       -1.06003   0.00009  -0.00461   0.00595   0.00134  -1.05869
   D43       -3.05341  -0.00031   0.00133  -0.00278  -0.00145  -3.05486
   D44       -0.94581   0.00008  -0.00118   0.00193   0.00075  -0.94506
   D45        1.09390  -0.00004  -0.00274   0.00364   0.00090   1.09480
   D46       -0.98290  -0.00026  -0.00011  -0.00111  -0.00122  -0.98412
   D47        1.12470   0.00012  -0.00262   0.00360   0.00098   1.12568
   D48       -3.11878   0.00001  -0.00418   0.00531   0.00113  -3.11764
   D49        1.07940  -0.00001  -0.00082   0.00203   0.00120   1.08060
   D50       -1.06995  -0.00000  -0.00048   0.00143   0.00095  -1.06901
   D51       -3.12676  -0.00000  -0.00075   0.00189   0.00114  -3.12562
   D52       -3.09494   0.00001   0.00015   0.00119   0.00135  -3.09359
   D53        1.03890   0.00001   0.00050   0.00059   0.00109   1.03999
   D54       -1.01791   0.00001   0.00023   0.00106   0.00129  -1.01662
   D55       -0.96921  -0.00000  -0.00032   0.00200   0.00168  -0.96753
   D56       -3.11856   0.00000   0.00002   0.00140   0.00143  -3.11713
   D57        1.10782   0.00000  -0.00025   0.00187   0.00162   1.10944
   D58        3.13473  -0.00003  -0.00900   0.00514  -0.00385   3.13088
   D59       -1.04577   0.00017  -0.00859   0.00633  -0.00226  -1.04804
   D60        1.04276   0.00004  -0.01221   0.00578  -0.00643   1.03633
   D61        1.00336  -0.00013  -0.00839   0.00471  -0.00368   0.99968
   D62        3.10604   0.00007  -0.00798   0.00589  -0.00208   3.10396
   D63       -1.08861  -0.00007  -0.01160   0.00534  -0.00626  -1.09487
   D64       -1.04363  -0.00005  -0.00824   0.00494  -0.00330  -1.04693
   D65        1.05905   0.00015  -0.00783   0.00612  -0.00171   1.05735
   D66       -3.13560   0.00002  -0.01144   0.00557  -0.00588  -3.14147
         Item               Value     Threshold  Converged?
 Maximum Force            0.000540     0.000450     NO 
 RMS     Force            0.000133     0.000300     YES
 Maximum Displacement     0.117584     0.001800     NO 
 RMS     Displacement     0.012068     0.001200     NO 
 Predicted change in Energy=-3.879309D-05
 Lowest energy point so far.  Saving SCF results.
 GradGradGradGradGradGradGradGradGradGradGradGradGradGradGradGradGradGrad

 Leave Link  103 at Fri Nov  1 11:03:38 2024, MaxMem=  4294967296 cpu:               0.6 elap:               0.0
 (Enter /home/matma/Software/gaussian16.B01_files/AVX2/tar//g16/l202.exe)
                          Input orientation:                          
 ---------------------------------------------------------------------
 Center     Atomic      Atomic             Coordinates (Angstroms)
 Number     Number       Type             X           Y           Z
 ---------------------------------------------------------------------
      1          8           0       -0.656113    1.140916    0.251868
      2          8           0       -0.857405   -2.484601   -0.316885
      3          8           0        1.957711   -1.986853    0.121723
      4          8           0        2.844325    0.601839   -0.458710
      5          8           0        0.986702    2.697301    0.081840
      6          8           0       -3.418531    0.961372   -0.054606
      7          6           0       -0.360481   -1.247402    0.163144
      8          6           0        1.052648   -1.008385   -0.340654
      9          6           0       -1.239256   -0.061272   -0.219734
     10          6           0        1.585461    0.342027    0.102745
     11          6           0        0.611007    1.437867   -0.318731
     12          6           0       -2.629863   -0.118854    0.376916
     13          1           0       -0.336851   -1.344544    1.253859
     14          1           0        1.032245   -1.009776   -1.445985
     15          1           0       -1.330905   -0.014479   -1.321037
     16          1           0        1.634138    0.346850    1.206232
     17          1           0        0.528931    1.471645   -1.414352
     18          1           0       -2.537337   -0.139843    1.473284
     19          1           0       -3.128923   -1.037380    0.061557
     20          1           0       -1.007690   -2.407943   -1.264283
     21          1           0        1.572086   -2.850958   -0.051581
     22          1           0        3.373165   -0.194012   -0.343673
     23          1           0        1.253475    2.664149    1.005102
     24          1           0       -2.926738    1.764234    0.143760
 ---------------------------------------------------------------------
                    Distance matrix (angstroms):
                    1          2          3          4          5
     1  O    0.000000
     2  O    3.675374   0.000000
     3  O    4.078229   2.892233   0.000000
     4  O    3.612284   4.821725   2.797197   0.000000
     5  O    2.269381   5.514692   4.783905   2.852003   0.000000
     6  O    2.785159   4.301498   6.134093   6.286170   4.736892
     7  C    2.408180   1.417047   2.433623   3.751957   4.169196
     8  C    2.808993   2.414142   1.410790   2.411819   3.730277
     9  C    1.416940   2.455152   3.747673   4.143967   3.557466
    10  C    2.384348   3.759456   2.358519   1.402667   2.430281
    11  C    1.421040   4.188316   3.706254   2.388776   1.373964
    12  C    2.344855   3.036400   4.959877   5.584300   4.593185
    13  H    2.698782   2.009463   2.638050   4.103801   4.411568
    14  H    3.218498   2.649671   2.066125   2.618329   4.009831
    15  H    2.065021   2.708141   4.097171   4.307669   3.833161
    16  H    2.605111   4.067528   2.593651   2.074031   2.684782
    17  H    2.071231   4.333388   4.045015   2.651578   1.987556
    18  H    2.582868   3.394815   5.044167   5.765847   4.733324
    19  H    3.300906   2.719827   5.174840   6.215900   5.557574
    20  H    3.875141   0.962302   3.300293   4.954368   5.643861
    21  H    4.581704   2.471240   0.961987   3.702183   5.580650
    22  H    4.286232   4.810950   2.331176   0.962436   3.773057
    23  H    2.556194   5.719536   4.786244   2.987754   0.961603
    24  H    2.357106   4.748361   6.158651   5.917711   4.023613
                    6          7          8          9         10
     6  O    0.000000
     7  C    3.778593   0.000000
     8  C    4.894201   1.519169   0.000000
     9  C    2.412946   1.525040   2.482835   0.000000
    10  C    5.044629   2.513289   1.517928   2.871527   0.000000
    11  C    4.066200   2.895973   2.485896   2.383420   1.525801
    12  C    1.405381   2.543504   3.855782   1.514297   4.249298
    13  H    4.065228   1.095287   2.141537   2.152348   2.804437
    14  H    5.062684   2.141366   1.105520   2.750103   2.128845
    15  H    2.629508   2.159772   2.762305   1.106100   3.264880
    16  H    5.243740   2.758292   2.137206   3.233626   1.104570
    17  H    4.206155   3.266920   2.752755   2.627438   2.166536
    18  H    2.079333   2.771616   4.114940   2.134830   4.371274
    19  H    2.022962   2.778255   4.200970   2.145403   4.912217
    20  H    4.315988   1.950201   2.656472   2.579064   4.019395
    21  H    6.280137   2.520380   1.936092   3.964123   3.196741
    22  H    6.895332   3.912366   2.459271   4.615995   1.918988
    23  H    5.084296   4.314392   3.916491   3.891253   2.513308
    24  H    0.962183   3.956767   4.874176   2.512409   4.731204
                   11         12         13         14         15
    11  C    0.000000
    12  C    3.662041   0.000000
    13  H    3.333659   2.743948   0.000000
    14  H    2.727472   4.186615   3.045595   0.000000
    15  H    2.623919   2.140381   3.063871   2.567237   0.000000
    16  H    2.136031   4.368792   2.597668   3.039237   3.912688
    17  H    1.099211   3.964380   3.974903   2.532149   2.382491
    18  H    3.951273   1.100466   2.518252   4.692636   3.046215
    19  H    4.500949   1.091880   3.051492   4.425920   2.488124
    20  H    4.278377   3.250370   2.814584   2.479763   2.415855
    21  H    4.403302   5.030345   2.759981   2.371865   4.252586
    22  H    3.208298   6.046590   4.200006   2.713018   4.807884
    23  H    1.915481   4.818718   4.319796   4.422047   4.389191
    24  H    3.582743   1.920552   4.195752   5.088808   2.802880
                   16         17         18         19         20
    16  H    0.000000
    17  H    3.058449   0.000000
    18  H    4.208252   4.509694   0.000000
    19  H    5.090493   4.674763   1.774407   0.000000
    20  H    4.546601   4.175516   3.870190   2.852354   0.000000
    21  H    3.436847   4.650830   5.153903   5.039975   2.884814
    22  H    2.391433   3.465608   6.183713   6.569066   4.994087
    23  H    2.356955   2.792989   4.738335   5.813519   5.999091
    24  H    4.892792   3.801969   2.354735   2.810103   4.803373
                   21         22         23         24
    21  H    0.000000
    22  H    3.223130   0.000000
    23  H    5.624456   3.805439   0.000000
    24  H    6.448068   6.615218   4.361873   0.000000
 Stoichiometry    C6H12O6
 Framework group  C1[X(C6H12O6)]
 Deg. of freedom    66
 Full point group                 C1      NOp   1
 RotChk:  IX=0 Diff= 4.71D-03
 Largest Abelian subgroup         C1      NOp   1
 Largest concise Abelian subgroup C1      NOp   1
                         Standard orientation:                         
 ---------------------------------------------------------------------
 Center     Atomic      Atomic             Coordinates (Angstroms)
 Number     Number       Type             X           Y           Z
 ---------------------------------------------------------------------
      1          8           0       -0.708309   -1.113710   -0.230555
      2          8           0       -0.727364    2.535631    0.205694
      3          8           0        2.039654    1.897587   -0.343417
      4          8           0        2.842019   -0.704816    0.295344
      5          8           0        0.872964   -2.734195   -0.076630
      6          8           0       -3.442646   -0.800541    0.196576
      7          6           0       -0.307253    1.260771   -0.248467
      8          6           0        1.116983    0.977939    0.198113
      9          6           0       -1.216358    0.129714    0.220555
     10          6           0        1.569845   -0.410192   -0.216754
     11          6           0        0.570960   -1.445442    0.291729
     12          6           0       -2.630311    0.227000   -0.312706
     13          1           0       -0.331944    1.316587   -1.342053
     14          1           0        1.149796    1.020885    1.302311
     15          1           0       -1.256892    0.127574    1.325910
     16          1           0        1.565190   -0.457754   -1.320290
     17          1           0        0.540262   -1.435224    1.390463
     18          1           0       -2.589766    0.203523   -1.412174
     19          1           0       -3.074047    1.177755   -0.010438
     20          1           0       -0.835080    2.500618    1.161307
     21          1           0        1.699973    2.783751   -0.186094
     22          1           0        3.398152    0.061999    0.125069
     23          1           0        1.096233   -2.746900   -1.011868
     24          1           0       -2.995612   -1.631199    0.006932
 ---------------------------------------------------------------------
 Rotational constants (GHZ):           1.1727678           0.7953430           0.4957858
 Leave Link  202 at Fri Nov  1 11:03:39 2024, MaxMem=  4294967296 cpu:               0.1 elap:               0.0
 (Enter /home/matma/Software/gaussian16.B01_files/AVX2/tar//g16/l301.exe)
 Standard basis: 6-311+G(d,p) (5D, 7F)
 Ernie: Thresh=  0.10000D-02 Tol=  0.10000D-05 Strict=F.
 There are   348 symmetry adapted cartesian basis functions of A   symmetry.
 There are   336 symmetry adapted basis functions of A   symmetry.
   336 basis functions,   528 primitive gaussians,   348 cartesian basis functions
    48 alpha electrons       48 beta electrons
       nuclear repulsion energy       828.3106747058 Hartrees.
 IExCor= 1009 DFT=T Ex+Corr=PBE1PBE ExCW=0 ScaHFX=  0.250000
 ScaDFX=  0.750000  0.750000  1.000000  1.000000 ScalE2=  1.000000  1.000000
 IRadAn=  99590 IRanWt=     -1 IRanGd=            0 ICorTp=0 IEmpDi=131
 NAtoms=   24 NActive=   24 NUniq=   24 SFac= 1.00D+00 NAtFMM=   60 NAOKFM=F Big=F
 Integral buffers will be    131072 words long.
 Raffenetti 2 integral format.
 Two-electron integral symmetry is turned on.
 R6Disp:  Grimme-D3 Dispersion energy=       -0.0157146763 Hartrees.
 Nuclear repulsion after empirical dispersion term =      828.2949600295 Hartrees.
 Leave Link  301 at Fri Nov  1 11:03:39 2024, MaxMem=  4294967296 cpu:               0.8 elap:               0.0
 (Enter /home/matma/Software/gaussian16.B01_files/AVX2/tar//g16/l302.exe)
 NPDir=0 NMtPBC=     1 NCelOv=     1 NCel=       1 NClECP=     1 NCelD=      1
         NCelK=      1 NCelE2=     1 NClLst=     1 CellRange=     0.0.
 One-electron integrals computed using PRISM.
 One-electron integral symmetry used in STVInt
 NBasis=   336 RedAO= T EigKep=  7.69D-06  NBF=   336
 NBsUse=   336 1.00D-06 EigRej= -1.00D+00 NBFU=   336
 Precomputing XC quadrature grid using
 IXCGrd= 4 IRadAn=       99590 IRanWt=          -1 IRanGd=           0 AccXCQ= 0.00D+00.
 Generated NRdTot=       0 NPtTot=           0 NUsed=           0 NTot=          32
 NSgBfM=   348   348   348   348   348 MxSgAt=    24 MxSgA2=    24.
 Leave Link  302 at Fri Nov  1 11:03:39 2024, MaxMem=  4294967296 cpu:               5.3 elap:               0.2
 (Enter /home/matma/Software/gaussian16.B01_files/AVX2/tar//g16/l303.exe)
 DipDrv:  MaxL=1.
 Leave Link  303 at Fri Nov  1 11:03:39 2024, MaxMem=  4294967296 cpu:               0.8 elap:               0.0
 (Enter /home/matma/Software/gaussian16.B01_files/AVX2/tar//g16/l401.exe)
 Initial guess from the checkpoint file:  "input.chk"
 B after Tr=    -0.000000   -0.000000    0.000000
         Rot=    1.000000    0.000086   -0.000201    0.000892 Ang=   0.11 deg.
 Guess basis will be translated and rotated to current coordinates.
 JPrj=2 DoOrth=T DoCkMO=T.
 Generating alternative initial guess.
 ExpMin= 4.38D-02 ExpMax= 8.59D+03 ExpMxC= 1.30D+03 IAcc=4 IRadAn=    199590 AccDes= 0.00D+00
 Harris functional with IExCor= 1009 and IRadAn=  199590 diagonalized for initial guess.
 HarFok:  IExCor= 1009 AccDes= 0.00D+00 IRadAn=    199590 IDoV= 1 UseB2=F ITyADJ=14
 ICtDFT=  3500011 ScaDFX=  1.000000  1.000000  1.000000  1.000000
 FoFCou: FMM=F IPFlag=           0 FMFlag=      100000 FMFlg1=           0
         NFxFlg=           0 DoJE=T BraDBF=F KetDBF=T FulRan=T
         wScrn=  0.000000 ICntrl=       500 IOpCl=  0 I1Cent=   200000004 NGrid=           0
         NMat0=    1 NMatS0=      1 NMatT0=    0 NMatD0=    1 NMtDS0=    0 NMtDT0=    0
 Petite list used in FoFCou.
 Harris En= -686.792485552769    
 Leave Link  401 at Fri Nov  1 11:03:40 2024, MaxMem=  4294967296 cpu:              40.7 elap:               1.5
 (Enter /home/matma/Software/gaussian16.B01_files/AVX2/tar//g16/l502.exe)
 Integral symmetry usage will be decided dynamically.
 Closed shell SCF:
 Using DIIS extrapolation, IDIIS=  1040.
 NGot=  4294967296 LenX=  4294711890 LenY=  4294590345
 Requested convergence on RMS density matrix=1.00D-08 within 128 cycles.
 Requested convergence on MAX density matrix=1.00D-06.
 Requested convergence on             energy=1.00D-06.
 No special actions if energy rises.
 Fock matrices will be formed incrementally for  20 cycles.

 Cycle   1  Pass 1  IDiag  1:
 FoFJK:  IHMeth= 1 ICntrl=       0 DoSepK=F KAlg= 0 I1Cent=           0 FoldK=F
 IRaf= 920000000 NMat=       1 IRICut=       1 DoRegI=T DoRafI=F ISym2E= 0 IDoP0=0 IntGTp=1.
 FoFCou: FMM=F IPFlag=           0 FMFlag=      100000 FMFlg1=           0
         NFxFlg=           0 DoJE=F BraDBF=F KetDBF=F FulRan=T
         wScrn=  0.000000 ICntrl=         0 IOpCl=  0 I1Cent=           0 NGrid=           0
         NMat0=    1 NMatS0=      1 NMatT0=    0 NMatD0=    1 NMtDS0=    0 NMtDT0=    0
 Symmetry not used in FoFCou.
 E= -686.660881049905    
 DIIS: error= 1.03D-03 at cycle   1 NSaved=   1.
 NSaved= 1 IEnMin= 1 EnMin= -686.660881049905     IErMin= 1 ErrMin= 1.03D-03
 ErrMax= 1.03D-03  0.00D+00 EMaxC= 1.00D-01 BMatC= 7.65D-04 BMatP= 7.65D-04
 IDIUse=3 WtCom= 9.90D-01 WtEn= 1.03D-02
 Coeff-Com:  0.100D+01
 Coeff-En:   0.100D+01
 Coeff:      0.100D+01
 Gap=     0.606 Goal=   None    Shift=    0.000
 GapD=    0.606 DampG=2.000 DampE=1.000 DampFc=2.0000 IDamp=-1.
 RMSDP=6.32D-04 MaxDP=6.64D-02              OVMax= 1.23D-02

 Cycle   2  Pass 1  IDiag  1:
 RMSU=  6.13D-04    CP:  9.92D-01
 E= -686.661792358635     Delta-E=       -0.000911308730 Rises=F Damp=F
 DIIS: error= 1.22D-04 at cycle   2 NSaved=   2.
 NSaved= 2 IEnMin= 2 EnMin= -686.661792358635     IErMin= 2 ErrMin= 1.22D-04
 ErrMax= 1.22D-04  0.00D+00 EMaxC= 1.00D-01 BMatC= 9.81D-06 BMatP= 7.65D-04
 IDIUse=3 WtCom= 9.99D-01 WtEn= 1.22D-03
 Coeff-Com: -0.611D-01 0.106D+01
 Coeff-En:   0.000D+00 0.100D+01
 Coeff:     -0.610D-01 0.106D+01
 Gap=     0.278 Goal=   None    Shift=    0.000
 RMSDP=6.18D-05 MaxDP=6.31D-03 DE=-9.11D-04 OVMax= 1.59D-03

 Cycle   3  Pass 1  IDiag  1:
 RMSU=  3.73D-05    CP:  9.92D-01  1.08D+00
 E= -686.661802157311     Delta-E=       -0.000009798676 Rises=F Damp=F
 DIIS: error= 5.03D-05 at cycle   3 NSaved=   3.
 NSaved= 3 IEnMin= 3 EnMin= -686.661802157311     IErMin= 3 ErrMin= 5.03D-05
 ErrMax= 5.03D-05  0.00D+00 EMaxC= 1.00D-01 BMatC= 2.50D-06 BMatP= 9.81D-06
 IDIUse=1 WtCom= 1.00D+00 WtEn= 0.00D+00
 Coeff-Com: -0.247D-01 0.360D+00 0.664D+00
 Coeff:     -0.247D-01 0.360D+00 0.664D+00
 Gap=     0.278 Goal=   None    Shift=    0.000
 RMSDP=1.48D-05 MaxDP=1.02D-03 DE=-9.80D-06 OVMax= 3.93D-04

 Cycle   4  Pass 1  IDiag  1:
 RMSU=  1.09D-05    CP:  9.92D-01  1.08D+00  7.40D-01
 E= -686.661803310413     Delta-E=       -0.000001153102 Rises=F Damp=F
 DIIS: error= 2.87D-05 at cycle   4 NSaved=   4.
 NSaved= 4 IEnMin= 4 EnMin= -686.661803310413     IErMin= 4 ErrMin= 2.87D-05
 ErrMax= 2.87D-05  0.00D+00 EMaxC= 1.00D-01 BMatC= 9.61D-07 BMatP= 2.50D-06
 IDIUse=1 WtCom= 1.00D+00 WtEn= 0.00D+00
 Coeff-Com: -0.579D-02 0.729D-01 0.389D+00 0.544D+00
 Coeff:     -0.579D-02 0.729D-01 0.389D+00 0.544D+00
 Gap=     0.278 Goal=   None    Shift=    0.000
 RMSDP=4.98D-06 MaxDP=3.62D-04 DE=-1.15D-06 OVMax= 1.63D-04

 Cycle   5  Pass 1  IDiag  1:
 RMSU=  3.66D-06    CP:  9.92D-01  1.07D+00  7.65D-01  7.17D-01
 E= -686.661803959887     Delta-E=       -0.000000649474 Rises=F Damp=F
 DIIS: error= 5.05D-06 at cycle   5 NSaved=   5.
 NSaved= 5 IEnMin= 5 EnMin= -686.661803959887     IErMin= 5 ErrMin= 5.05D-06
 ErrMax= 5.05D-06  0.00D+00 EMaxC= 1.00D-01 BMatC= 2.15D-08 BMatP= 9.61D-07
 IDIUse=1 WtCom= 1.00D+00 WtEn= 0.00D+00
 Coeff-Com: -0.141D-03-0.655D-02 0.921D-01 0.195D+00 0.720D+00
 Coeff:     -0.141D-03-0.655D-02 0.921D-01 0.195D+00 0.720D+00
 Gap=     0.278 Goal=   None    Shift=    0.000
 RMSDP=1.63D-06 MaxDP=1.29D-04 DE=-6.49D-07 OVMax= 3.53D-05

 Cycle   6  Pass 1  IDiag  1:
 RMSU=  1.05D-06    CP:  9.92D-01  1.08D+00  7.80D-01  7.25D-01  8.18D-01
 E= -686.661803972896     Delta-E=       -0.000000013009 Rises=F Damp=F
 DIIS: error= 2.46D-06 at cycle   6 NSaved=   6.
 NSaved= 6 IEnMin= 6 EnMin= -686.661803972896     IErMin= 6 ErrMin= 2.46D-06
 ErrMax= 2.46D-06  0.00D+00 EMaxC= 1.00D-01 BMatC= 5.30D-09 BMatP= 2.15D-08
 IDIUse=1 WtCom= 1.00D+00 WtEn= 0.00D+00
 Coeff-Com:  0.461D-03-0.114D-01 0.180D-01 0.632D-01 0.406D+00 0.523D+00
 Coeff:      0.461D-03-0.114D-01 0.180D-01 0.632D-01 0.406D+00 0.523D+00
 Gap=     0.278 Goal=   None    Shift=    0.000
 RMSDP=5.36D-07 MaxDP=4.81D-05 DE=-1.30D-08 OVMax= 1.07D-05

 Cycle   7  Pass 1  IDiag  1:
 RMSU=  3.50D-07    CP:  9.92D-01  1.07D+00  7.81D-01  7.25D-01  8.74D-01
                    CP:  7.84D-01
 E= -686.661803976981     Delta-E=       -0.000000004085 Rises=F Damp=F
 DIIS: error= 4.54D-07 at cycle   7 NSaved=   7.
 NSaved= 7 IEnMin= 7 EnMin= -686.661803976981     IErMin= 7 ErrMin= 4.54D-07
 ErrMax= 4.54D-07  0.00D+00 EMaxC= 1.00D-01 BMatC= 1.99D-10 BMatP= 5.30D-09
 IDIUse=1 WtCom= 1.00D+00 WtEn= 0.00D+00
 Coeff-Com:  0.239D-03-0.504D-02 0.234D-02 0.165D-01 0.134D+00 0.227D+00
 Coeff-Com:  0.625D+00
 Coeff:      0.239D-03-0.504D-02 0.234D-02 0.165D-01 0.134D+00 0.227D+00
 Coeff:      0.625D+00
 Gap=     0.278 Goal=   None    Shift=    0.000
 RMSDP=1.40D-07 MaxDP=1.04D-05 DE=-4.08D-09 OVMax= 2.76D-06

 Cycle   8  Pass 1  IDiag  1:
 RMSU=  1.23D-07    CP:  9.92D-01  1.07D+00  7.80D-01  7.29D-01  8.77D-01
                    CP:  7.83D-01  9.78D-01
 E= -686.661803977117     Delta-E=       -0.000000000136 Rises=F Damp=F
 DIIS: error= 2.26D-07 at cycle   8 NSaved=   8.
 NSaved= 8 IEnMin= 8 EnMin= -686.661803977117     IErMin= 8 ErrMin= 2.26D-07
 ErrMax= 2.26D-07  0.00D+00 EMaxC= 1.00D-01 BMatC= 3.14D-11 BMatP= 1.99D-10
 IDIUse=1 WtCom= 1.00D+00 WtEn= 0.00D+00
 Coeff-Com:  0.465D-04-0.742D-03-0.989D-03-0.452D-03 0.528D-02 0.292D-01
 Coeff-Com:  0.305D+00 0.662D+00
 Coeff:      0.465D-04-0.742D-03-0.989D-03-0.452D-03 0.528D-02 0.292D-01
 Coeff:      0.305D+00 0.662D+00
 Gap=     0.278 Goal=   None    Shift=    0.000
 RMSDP=5.12D-08 MaxDP=3.85D-06 DE=-1.36D-10 OVMax= 1.21D-06

 Cycle   9  Pass 1  IDiag  1:
 RMSU=  4.21D-08    CP:  9.92D-01  1.07D+00  7.80D-01  7.30D-01  8.77D-01
                    CP:  7.97D-01  1.01D+00  8.87D-01
 E= -686.661803977137     Delta-E=       -0.000000000020 Rises=F Damp=F
 DIIS: error= 4.36D-08 at cycle   9 NSaved=   9.
 NSaved= 9 IEnMin= 9 EnMin= -686.661803977137     IErMin= 9 ErrMin= 4.36D-08
 ErrMax= 4.36D-08  0.00D+00 EMaxC= 1.00D-01 BMatC= 1.63D-12 BMatP= 3.14D-11
 IDIUse=1 WtCom= 1.00D+00 WtEn= 0.00D+00
 Coeff-Com:  0.361D-05 0.351D-04-0.542D-03-0.127D-02-0.706D-02-0.413D-02
 Coeff-Com:  0.764D-01 0.271D+00 0.666D+00
 Coeff:      0.361D-05 0.351D-04-0.542D-03-0.127D-02-0.706D-02-0.413D-02
 Coeff:      0.764D-01 0.271D+00 0.666D+00
 Gap=     0.278 Goal=   None    Shift=    0.000
 RMSDP=1.85D-08 MaxDP=2.12D-06 DE=-1.96D-11 OVMax= 2.90D-07

 Cycle  10  Pass 1  IDiag  1:
 RMSU=  9.21D-09    CP:  9.92D-01  1.07D+00  7.80D-01  7.29D-01  8.77D-01
                    CP:  8.01D-01  1.03D+00  8.82D-01  7.58D-01
 E= -686.661803977144     Delta-E=       -0.000000000007 Rises=F Damp=F
 DIIS: error= 1.02D-08 at cycle  10 NSaved=  10.
 NSaved=10 IEnMin=10 EnMin= -686.661803977144     IErMin=10 ErrMin= 1.02D-08
 ErrMax= 1.02D-08  0.00D+00 EMaxC= 1.00D-01 BMatC= 1.04D-13 BMatP= 1.63D-12
 IDIUse=1 WtCom= 1.00D+00 WtEn= 0.00D+00
 Coeff-Com: -0.121D-05 0.572D-04-0.166D-03-0.495D-03-0.315D-02-0.331D-02
 Coeff-Com:  0.106D-01 0.671D-01 0.263D+00 0.667D+00
 Coeff:     -0.121D-05 0.572D-04-0.166D-03-0.495D-03-0.315D-02-0.331D-02
 Coeff:      0.106D-01 0.671D-01 0.263D+00 0.667D+00
 Gap=     0.278 Goal=   None    Shift=    0.000
 RMSDP=4.31D-09 MaxDP=4.84D-07 DE=-7.28D-12 OVMax= 8.16D-08

 SCF Done:  E(RPBE1PBE) =  -686.661803977     A.U. after   10 cycles
            NFock= 10  Conv=0.43D-08     -V/T= 2.0032
 KE= 6.844650609601D+02 PE=-3.269877953461D+03 EE= 1.070456128494D+03
 Leave Link  502 at Fri Nov  1 11:03:55 2024, MaxMem=  4294967296 cpu:             408.4 elap:              14.6
 (Enter /home/matma/Software/gaussian16.B01_files/AVX2/tar//g16/l701.exe)
 ... and contract with generalized density number  0.
 Compute integral first derivatives.
 R6Disp: Adding Grimme-D3 dispersion energy 1st derivatives to the gradient.
 Leave Link  701 at Fri Nov  1 11:03:55 2024, MaxMem=  4294967296 cpu:               3.7 elap:               0.2
 (Enter /home/matma/Software/gaussian16.B01_files/AVX2/tar//g16/l702.exe)
 L702 exits ... SP integral derivatives will be done elsewhere.
 Leave Link  702 at Fri Nov  1 11:03:55 2024, MaxMem=  4294967296 cpu:               0.3 elap:               0.0
 (Enter /home/matma/Software/gaussian16.B01_files/AVX2/tar//g16/l703.exe)
 Integral derivatives from FoFJK, PRISM(SPDF).
 Compute integral first derivatives, UseDBF=F ICtDFT=           0.
 Calling FoFJK, ICntrl=      2127 FMM=F ISym2X=0 I1Cent= 0 IOpClX= 0 NMat=1 NMatS=1 NMatT=0.
 FoFJK:  IHMeth= 1 ICntrl=    2127 DoSepK=F KAlg= 0 I1Cent=           0 FoldK=F
 IRaf=         0 NMat=       1 IRICut=       1 DoRegI=T DoRafI=F ISym2E= 0 IDoP0=0 IntGTp=1.
 FoFCou: FMM=F IPFlag=           0 FMFlag=      100000 FMFlg1=         800
         NFxFlg=           0 DoJE=F BraDBF=F KetDBF=F FulRan=T
         wScrn=  0.000000 ICntrl=      2127 IOpCl=  0 I1Cent=           0 NGrid=           0
         NMat0=    1 NMatS0=      1 NMatT0=    0 NMatD0=    1 NMtDS0=    0 NMtDT0=    0
 Symmetry not used in FoFCou.
 Leave Link  703 at Fri Nov  1 11:04:00 2024, MaxMem=  4294967296 cpu:             125.5 elap:               4.5
 (Enter /home/matma/Software/gaussian16.B01_files/AVX2/tar//g16/l716.exe)
 Dipole        = 3.27418571D-01 9.60578335D-01-5.87967943D-02
 ***** Axes restored to original set *****
 -------------------------------------------------------------------
 Center     Atomic                   Forces (Hartrees/Bohr)
 Number     Number              X              Y              Z
 -------------------------------------------------------------------
      1        8          -0.000292711    0.000010140   -0.000021725
      2        8           0.000027271    0.000008314    0.000021497
      3        8          -0.000009320   -0.000027978   -0.000088094
      4        8           0.000272006   -0.000339708   -0.000305954
      5        8          -0.000028126   -0.000080862   -0.000015408
      6        8          -0.000003262   -0.000021616    0.000017314
      7        6           0.000018132   -0.000163210    0.000014768
      8        6           0.000003270   -0.000099405    0.000007998
      9        6           0.000000054    0.000036623    0.000045152
     10        6           0.000107708    0.000102948    0.000138832
     11        6           0.000048297    0.000284846    0.000121537
     12        6          -0.000015153    0.000004712   -0.000025367
     13        1           0.000005486    0.000065847   -0.000013191
     14        1          -0.000084716   -0.000031223   -0.000094592
     15        1           0.000001282    0.000008810   -0.000010919
     16        1          -0.000001129   -0.000120844   -0.000179193
     17        1          -0.000066419    0.000026551    0.000054065
     18        1           0.000005678   -0.000000114   -0.000003693
     19        1           0.000000803    0.000001520   -0.000001108
     20        1          -0.000028962    0.000018599    0.000000144
     21        1          -0.000088380   -0.000013202    0.000054155
     22        1           0.000162360    0.000313881    0.000309534
     23        1          -0.000049616    0.000022858   -0.000017502
     24        1           0.000015446   -0.000007488   -0.000008249
 -------------------------------------------------------------------
 Cartesian Forces:  Max     0.000339708 RMS     0.000110662
 Leave Link  716 at Fri Nov  1 11:04:00 2024, MaxMem=  4294967296 cpu:               0.3 elap:               0.0
 (Enter /home/matma/Software/gaussian16.B01_files/AVX2/tar//g16/l103.exe)

 GradGradGradGradGradGradGradGradGradGradGradGradGradGradGradGradGradGrad
 Berny optimization.
 Using GEDIIS/GDIIS optimizer.
 FormGI is forming the generalized inverse of G from B-inverse, IUseBI=4.
 Internal  Forces:  Max     0.000384197 RMS     0.000086283
 Search for a local minimum.
 Step number  11 out of a maximum of  142
 All quantities printed in internal units (Hartrees-Bohrs-Radians)
 RMS Force = .86283D-04 SwitMx=.10000D-02 MixMth= 2
 Mixed Optimization -- En-DIIS/RFO-DIIS
 Swapping is turned off.
 Update second derivatives using D2CorX and points    7    9   10   11
 DE= -4.66D-05 DEPred=-3.88D-05 R= 1.20D+00
 TightC=F SS=  1.41D+00  RLast= 1.49D-01 DXNew= 2.0182D+00 4.4691D-01
 Trust test= 1.20D+00 RLast= 1.49D-01 DXMaxT set to 1.20D+00
 ITU=  1  0  1 -1  1  0  1  0  1  1  0
     Eigenvalues ---    0.00242   0.00311   0.00346   0.00444   0.00544
     Eigenvalues ---    0.00741   0.00777   0.00871   0.01008   0.02357
     Eigenvalues ---    0.02441   0.03670   0.04161   0.04656   0.04921
     Eigenvalues ---    0.05100   0.05281   0.05663   0.05830   0.05992
     Eigenvalues ---    0.06279   0.06553   0.06822   0.07036   0.07099
     Eigenvalues ---    0.08514   0.09466   0.09722   0.10826   0.12202
     Eigenvalues ---    0.14023   0.14355   0.15800   0.15962   0.16910
     Eigenvalues ---    0.17129   0.17615   0.18294   0.19562   0.20443
     Eigenvalues ---    0.20601   0.23885   0.24294   0.25233   0.26589
     Eigenvalues ---    0.28526   0.29254   0.29850   0.31375   0.31589
     Eigenvalues ---    0.32860   0.33050   0.33185   0.33386   0.33865
     Eigenvalues ---    0.34315   0.36454   0.37127   0.39163   0.39798
     Eigenvalues ---    0.40732   0.49724   0.49810   0.49869   0.49936
     Eigenvalues ---    0.50210
 En-DIIS/RFO-DIIS/Sim-DIIS IScMMF=       -3 using points:    11   10    9
 RFO step:  Lambda=-2.32555048D-05.
 NNeg= 0 NGDIIS= 3 SimSw=  2.50D-01 Rises=F DC= -4.66D-05 SmlDif=  1.00D-05
 NRisDI= 0 DoIntr=F SqrtH=F CThrHd= 10.0 CDAdj=  3.0
 RMS Error=  0.4559143924D-02 NUsed= 3 OKEnD=T EnDIS=F
 InvSVX:  RCond= 6.19D-04 Info=           0 Equed=N FErr=  3.78D-15 BErr=  2.67D-17
 DidBck=F Rises=F RFO-DIIS coefs:    1.32493   -0.23156   -0.09336
 Iteration  1 RMS(Cart)=  0.00418184 RMS(Int)=  0.00004296
 Iteration  2 RMS(Cart)=  0.00004225 RMS(Int)=  0.00000153
 Iteration  3 RMS(Cart)=  0.00000000 RMS(Int)=  0.00000153
 ITry= 1 IFail=0 DXMaxC= 2.29D-02 DCOld= 1.00D+10 DXMaxT= 1.20D+00 DXLimC= 3.00D+00 Rises=F
 Variable       Old X    -DE/DX   Delta X   Delta X   Delta X     New X
                                 (Linear)    (Quad)   (Total)
    R1        2.67763  -0.00005   0.00007  -0.00010  -0.00003   2.67760
    R2        2.68538   0.00019  -0.00007   0.00050   0.00043   2.68581
    R3        2.67783  -0.00003   0.00003  -0.00008  -0.00004   2.67779
    R4        1.81849   0.00000  -0.00001   0.00004   0.00003   1.81852
    R5        2.66601  -0.00004  -0.00022   0.00023   0.00001   2.66602
    R6        1.81789   0.00004  -0.00012   0.00025   0.00014   1.81803
    R7        2.65066   0.00038  -0.00094   0.00112   0.00017   2.65083
    R8        1.81874  -0.00013  -0.00003  -0.00023  -0.00026   1.81848
    R9        2.59642  -0.00008  -0.00010  -0.00011  -0.00022   2.59620
   R10        1.81717  -0.00003   0.00010  -0.00007   0.00003   1.81719
   R11        2.65579  -0.00003   0.00006  -0.00010  -0.00004   2.65575
   R12        1.81826   0.00000  -0.00002   0.00002   0.00000   1.81827
   R13        2.87081   0.00006  -0.00000  -0.00014  -0.00014   2.87068
   R14        2.88191   0.00005  -0.00009  -0.00017  -0.00026   2.88165
   R15        2.06979  -0.00002   0.00004  -0.00003   0.00001   2.06981
   R16        2.86847   0.00031   0.00001   0.00050   0.00051   2.86898
   R17        2.08913   0.00010   0.00014  -0.00008   0.00006   2.08919
   R18        2.86161  -0.00001  -0.00005   0.00004  -0.00001   2.86160
   R19        2.09023   0.00001  -0.00004   0.00004  -0.00000   2.09022
   R20        2.88335   0.00036   0.00024   0.00062   0.00086   2.88420
   R21        2.08734  -0.00018  -0.00028  -0.00010  -0.00038   2.08695
   R22        2.07721  -0.00005  -0.00005  -0.00013  -0.00018   2.07703
   R23        2.07958  -0.00000   0.00001   0.00001   0.00001   2.07959
   R24        2.06335  -0.00000  -0.00000  -0.00002  -0.00003   2.06333
    A1        1.99394   0.00002  -0.00011   0.00093   0.00081   1.99475
    A2        1.89518  -0.00001  -0.00008  -0.00009  -0.00017   1.89500
    A3        1.88261  -0.00008   0.00026  -0.00113  -0.00087   1.88174
    A4        1.86726   0.00023   0.00004   0.00039   0.00043   1.86769
    A5        1.90094   0.00002  -0.00028   0.00005  -0.00023   1.90071
    A6        1.86631  -0.00002   0.00005  -0.00013  -0.00009   1.86622
    A7        1.92967  -0.00001   0.00044  -0.00023   0.00021   1.92988
    A8        1.97354  -0.00006  -0.00005   0.00038   0.00033   1.97387
    A9        1.84156   0.00003  -0.00023   0.00032   0.00008   1.84165
   A10        1.90750   0.00007   0.00024  -0.00033  -0.00010   1.90740
   A11        1.90089  -0.00002  -0.00035   0.00029  -0.00006   1.90083
   A12        1.90861  -0.00001  -0.00009  -0.00040  -0.00048   1.90813
   A13        1.95945  -0.00010  -0.00045  -0.00055  -0.00100   1.95845
   A14        1.87140   0.00008   0.00006   0.00003   0.00010   1.87150
   A15        1.91628   0.00001   0.00047  -0.00011   0.00036   1.91664
   A16        1.94939   0.00001   0.00009  -0.00060  -0.00050   1.94888
   A17        1.89042  -0.00004   0.00065   0.00016   0.00081   1.89123
   A18        1.87513   0.00005  -0.00085   0.00114   0.00029   1.87542
   A19        1.91684   0.00004  -0.00021  -0.00032  -0.00053   1.91631
   A20        1.85361  -0.00003   0.00008  -0.00016  -0.00008   1.85353
   A21        1.90667   0.00000  -0.00008   0.00011   0.00003   1.90670
   A22        1.98304   0.00000   0.00014   0.00005   0.00020   1.98324
   A23        1.90776  -0.00002   0.00010   0.00020   0.00030   1.90806
   A24        1.89423   0.00001  -0.00004   0.00011   0.00007   1.89430
   A25        1.94216   0.00012  -0.00061   0.00035  -0.00026   1.94190
   A26        1.90665   0.00012   0.00119  -0.00079   0.00041   1.90705
   A27        1.93855  -0.00009  -0.00070   0.00099   0.00029   1.93884
   A28        1.91143  -0.00012   0.00007   0.00043   0.00050   1.91192
   A29        1.88723  -0.00002  -0.00028  -0.00079  -0.00107   1.88616
   A30        1.87651  -0.00002   0.00037  -0.00021   0.00016   1.87666
   A31        1.89474  -0.00007   0.00050  -0.00081  -0.00030   1.89443
   A32        1.88439   0.00005  -0.00035   0.00117   0.00082   1.88520
   A33        1.91778  -0.00004   0.00020  -0.00043  -0.00024   1.91755
   A34        1.98578   0.00007   0.00009   0.00014   0.00023   1.98601
   A35        1.85755  -0.00002  -0.00088   0.00022  -0.00066   1.85689
   A36        1.92313   0.00001   0.00046  -0.00035   0.00011   1.92324
   A37        1.94457  -0.00000   0.00008  -0.00003   0.00006   1.94462
   A38        1.94738   0.00001   0.00004  -0.00002   0.00002   1.94740
   A39        1.87698   0.00000  -0.00002   0.00001  -0.00000   1.87698
   A40        1.89237  -0.00001   0.00006  -0.00015  -0.00009   1.89228
   A41        1.91550   0.00001  -0.00010   0.00016   0.00006   1.91557
   A42        1.88613   0.00000  -0.00007   0.00003  -0.00005   1.88608
    D1        1.09911  -0.00004   0.00062  -0.00081  -0.00019   1.09892
    D2       -3.03293  -0.00004   0.00073  -0.00103  -0.00031  -3.03324
    D3       -0.99312  -0.00004   0.00068  -0.00093  -0.00025  -0.99338
    D4        3.00716  -0.00004  -0.00101   0.00311   0.00210   3.00926
    D5       -1.11569   0.00003  -0.00081   0.00351   0.00271  -1.11298
    D6        0.98222   0.00004  -0.00035   0.00354   0.00319   0.98542
    D7       -1.21913  -0.00004   0.00232  -0.00192   0.00040  -1.21873
    D8        0.92610   0.00000   0.00292  -0.00225   0.00067   0.92677
    D9        3.01143  -0.00003   0.00264  -0.00233   0.00031   3.01174
   D10        0.86590  -0.00009   0.00482  -0.01107  -0.00625   0.85965
   D11        3.01319  -0.00009   0.00470  -0.01215  -0.00746   3.00573
   D12       -1.23802   0.00002   0.00396  -0.01083  -0.00687  -1.24489
   D13       -0.81091  -0.00025  -0.00436  -0.02059  -0.02496  -0.83587
   D14       -2.92351  -0.00025  -0.00485  -0.02084  -0.02568  -2.94919
   D15        1.29264  -0.00025  -0.00562  -0.02068  -0.02630   1.26634
   D16        1.28998   0.00003  -0.01514   0.00260  -0.01254   1.27743
   D17       -0.80848  -0.00003  -0.01511   0.00159  -0.01351  -0.82199
   D18       -2.92971  -0.00007  -0.01512   0.00179  -0.01333  -2.94304
   D19       -0.93869   0.00002  -0.00008   0.00111   0.00104  -0.93765
   D20        1.17917   0.00000   0.00008   0.00089   0.00097   1.18015
   D21       -3.03849   0.00001   0.00001   0.00092   0.00093  -3.03757
   D22       -1.08751   0.00005  -0.00036   0.00217   0.00181  -1.08571
   D23        3.09291   0.00001  -0.00019   0.00294   0.00274   3.09565
   D24        1.03130  -0.00003   0.00039   0.00178   0.00217   1.03347
   D25        3.01249   0.00008  -0.00077   0.00209   0.00131   3.01380
   D26        0.90973   0.00004  -0.00060   0.00285   0.00225   0.91198
   D27       -1.15188  -0.00000  -0.00002   0.00170   0.00168  -1.15020
   D28        0.92833   0.00006  -0.00060   0.00259   0.00199   0.93032
   D29       -1.17443   0.00002  -0.00043   0.00336   0.00293  -1.17150
   D30        3.04714  -0.00002   0.00015   0.00221   0.00236   3.04950
   D31       -3.10538  -0.00003  -0.00052  -0.00230  -0.00282  -3.10820
   D32        1.10472  -0.00002  -0.00057  -0.00190  -0.00247   1.10224
   D33       -1.01381  -0.00001  -0.00069  -0.00223  -0.00292  -1.01673
   D34       -0.94789  -0.00003   0.00019  -0.00258  -0.00239  -0.95028
   D35       -3.02098  -0.00002   0.00014  -0.00219  -0.00204  -3.02303
   D36        1.14368  -0.00002   0.00002  -0.00252  -0.00249   1.14119
   D37        1.13149  -0.00002  -0.00014  -0.00266  -0.00281   1.12868
   D38       -0.94160  -0.00001  -0.00019  -0.00227  -0.00246  -0.94406
   D39       -3.06012  -0.00000  -0.00031  -0.00260  -0.00291  -3.06303
   D40        1.07483  -0.00002  -0.00024   0.00157   0.00133   1.07616
   D41       -3.09856   0.00013   0.00090   0.00109   0.00200  -3.09656
   D42       -1.05869   0.00003   0.00122   0.00064   0.00185  -1.05684
   D43       -3.05486  -0.00009  -0.00070   0.00052  -0.00018  -3.05504
   D44       -0.94506   0.00006   0.00044   0.00005   0.00049  -0.94457
   D45        1.09480  -0.00004   0.00076  -0.00041   0.00035   1.09515
   D46       -0.98412  -0.00010  -0.00038   0.00109   0.00071  -0.98341
   D47        1.12568   0.00005   0.00076   0.00061   0.00138   1.12705
   D48       -3.11764  -0.00005   0.00108   0.00016   0.00123  -3.11641
   D49        1.08060  -0.00001   0.00053  -0.00079  -0.00026   1.08034
   D50       -1.06901  -0.00001   0.00039  -0.00064  -0.00025  -1.06926
   D51       -3.12562  -0.00001   0.00050  -0.00068  -0.00018  -3.12580
   D52       -3.09359   0.00001   0.00041  -0.00126  -0.00085  -3.09445
   D53        1.03999   0.00002   0.00027  -0.00112  -0.00085   1.03914
   D54       -1.01662   0.00002   0.00038  -0.00116  -0.00078  -1.01740
   D55       -0.96753  -0.00000   0.00060  -0.00089  -0.00029  -0.96782
   D56       -3.11713  -0.00000   0.00046  -0.00074  -0.00028  -3.11742
   D57        1.10944  -0.00000   0.00057  -0.00078  -0.00021   1.10923
   D58        3.13088   0.00007   0.00027  -0.00288  -0.00261   3.12826
   D59       -1.04804   0.00006   0.00072  -0.00299  -0.00227  -1.05031
   D60        1.03633   0.00008  -0.00002  -0.00286  -0.00289   1.03344
   D61        0.99968  -0.00008   0.00023  -0.00308  -0.00286   0.99682
   D62        3.10396  -0.00009   0.00067  -0.00319  -0.00252   3.10143
   D63       -1.09487  -0.00007  -0.00007  -0.00307  -0.00314  -1.09800
   D64       -1.04693   0.00001   0.00032  -0.00226  -0.00194  -1.04887
   D65        1.05735   0.00001   0.00077  -0.00237  -0.00160   1.05575
   D66       -3.14147   0.00003   0.00003  -0.00225  -0.00222   3.13949
         Item               Value     Threshold  Converged?
 Maximum Force            0.000384     0.000450     YES
 RMS     Force            0.000086     0.000300     YES
 Maximum Displacement     0.022913     0.001800     NO 
 RMS     Displacement     0.004180     0.001200     NO 
 Predicted change in Energy=-1.165781D-05
 Lowest energy point so far.  Saving SCF results.
 GradGradGradGradGradGradGradGradGradGradGradGradGradGradGradGradGradGrad

 Leave Link  103 at Fri Nov  1 11:04:00 2024, MaxMem=  4294967296 cpu:               0.6 elap:               0.0
 (Enter /home/matma/Software/gaussian16.B01_files/AVX2/tar//g16/l202.exe)
                          Input orientation:                          
 ---------------------------------------------------------------------
 Center     Atomic      Atomic             Coordinates (Angstroms)
 Number     Number       Type             X           Y           Z
 ---------------------------------------------------------------------
      1          8           0       -0.655655    1.140767    0.250956
      2          8           0       -0.857998   -2.485194   -0.313113
      3          8           0        1.956649   -1.988544    0.117568
      4          8           0        2.844711    0.600051   -0.465213
      5          8           0        0.987643    2.696753    0.084020
      6          8           0       -3.418028    0.961705   -0.054381
      7          6           0       -0.359879   -1.246983    0.162982
      8          6           0        1.052205   -1.009149   -0.344077
      9          6           0       -1.239014   -0.061430   -0.220307
     10          6           0        1.586757    0.341027    0.098871
     11          6           0        0.611777    1.438338   -0.319192
     12          6           0       -2.629443   -0.118701    0.376778
     13          1           0       -0.334097   -1.341445    1.253892
     14          1           0        1.030163   -1.010655   -1.449408
     15          1           0       -1.330911   -0.014846   -1.321597
     16          1           0        1.637732    0.344080    1.202056
     17          1           0        0.529199    1.475348   -1.414578
     18          1           0       -2.536477   -0.139772    1.473115
     19          1           0       -3.128855   -1.037090    0.061625
     20          1           0       -1.009805   -2.410690   -1.260457
     21          1           0        1.566302   -2.851819   -0.049609
     22          1           0        3.380806   -0.187827   -0.331548
     23          1           0        1.243542    2.663609    1.010369
     24          1           0       -2.925525    1.764366    0.143048
 ---------------------------------------------------------------------
                    Distance matrix (angstroms):
                    1          2          3          4          5
     1  O    0.000000
     2  O    3.675148   0.000000
     3  O    4.078543   2.890395   0.000000
     4  O    3.613562   4.822025   2.798055   0.000000
     5  O    2.269226   5.515132   4.784569   2.854210   0.000000
     6  O    2.784959   4.301373   6.133570   6.286610   4.737033
     7  C    2.407607   1.417024   2.432751   3.751741   4.168345
     8  C    2.809446   2.414238   1.410798   2.411903   3.731104
     9  C    1.416924   2.455285   3.747024   4.144194   3.557835
    10  C    2.385608   3.759533   2.358828   1.402758   2.430762
    11  C    1.421267   4.189794   3.707150   2.389569   1.373850
    12  C    2.344767   3.035500   4.959409   5.584972   4.593017
    13  H    2.696415   2.009512   2.637705   4.102383   4.407112
    14  H    3.218981   2.651525   2.066411   2.618319   4.012241
    15  H    2.065027   2.709854   4.095696   4.306659   3.834608
    16  H    2.607475   4.065612   2.592096   2.074152   2.684714
    17  H    2.071189   4.338598   4.047670   2.651233   1.986907
    18  H    2.582817   3.392479   5.044169   5.767290   4.732323
    19  H    3.300852   2.719233   5.174045   6.216211   5.557665
    20  H    3.875905   0.962318   3.298031   4.955227   5.646538
    21  H    4.579101   2.465984   0.962061   3.704384   5.580264
    22  H    4.289229   4.821379   2.339340   0.962297   3.771038
    23  H    2.550040   5.716490   4.790423   2.999893   0.961616
    24  H    2.356445   4.747790   6.157971   5.917874   4.023148
                    6          7          8          9         10
     6  O    0.000000
     7  C    3.778600   0.000000
     8  C    4.893993   1.519097   0.000000
     9  C    2.412973   1.524902   2.482574   0.000000
    10  C    5.045454   2.513022   1.518198   2.872078   0.000000
    11  C    4.066525   2.896127   2.486923   2.384220   1.526255
    12  C    1.405362   2.543550   3.855783   1.514294   4.250286
    13  H    4.065305   1.095295   2.141438   2.151877   2.802582
    14  H    5.061888   2.141932   1.105552   2.749706   2.129321
    15  H    2.629742   2.159870   2.761055   1.106098   3.264531
    16  H    5.246028   2.757101   2.136492   3.234691   1.104367
    17  H    4.206490   3.269593   2.755400   2.629552   2.166943
    18  H    2.079334   2.771271   4.115415   2.134766   4.372731
    19  H    2.022934   2.778769   4.200790   2.145436   4.913002
    20  H    4.315924   1.950077   2.656305   2.579433   4.020181
    21  H    6.275869   2.516121   1.935572   3.960455   3.196362
    22  H    6.900898   3.919068   2.469233   4.622888   1.919260
    23  H    5.075471   4.310656   3.919220   3.886321   2.518534
    24  H    0.962185   3.956154   4.873603   2.511947   4.731653
                   11         12         13         14         15
    11  C    0.000000
    12  C    3.662547   0.000000
    13  H    3.331135   2.744639   0.000000
    14  H    2.729469   4.186079   3.046056   0.000000
    15  H    2.624994   2.140432   3.063763   2.565666   0.000000
    16  H    2.136394   4.370817   2.594570   3.038867   3.912863
    17  H    1.099118   3.965724   3.974963   2.536215   2.385232
    18  H    3.951493   1.100473   2.518442   4.692601   3.046213
    19  H    4.501676   1.091866   3.053654   4.425082   2.488149
    20  H    4.281416   3.249150   2.814572   2.481385   2.418040
    21  H    4.403321   5.025536   2.755333   2.374187   4.249731
    22  H    3.211244   6.052240   4.200591   2.729868   4.817717
    23  H    1.915242   4.810687   4.311462   4.426766   4.386342
    24  H    3.582243   1.920478   4.194702   5.087645   2.802423
                   16         17         18         19         20
    16  H    0.000000
    17  H    3.058658   0.000000
    18  H    4.210891   4.510626   0.000000
    19  H    5.092010   4.676844   1.774372   0.000000
    20  H    4.545568   4.182532   3.867844   2.850447   0.000000
    21  H    3.433007   4.654363   5.148464   5.034889   2.880464
    22  H    2.381843   3.474301   6.186546   6.576589   5.008140
    23  H    2.360582   2.793318   4.728808   5.806302   5.998562
    24  H    4.895102   3.800638   2.355032   2.810004   4.803218
                   21         22         23         24
    21  H    0.000000
    22  H    3.235548   0.000000
    23  H    5.625627   3.807798   0.000000
    24  H    6.443818   6.618619   4.352242   0.000000
 Stoichiometry    C6H12O6
 Framework group  C1[X(C6H12O6)]
 Deg. of freedom    66
 Full point group                 C1      NOp   1
 RotChk:  IX=0 Diff= 1.10D-03
 Largest Abelian subgroup         C1      NOp   1
 Largest concise Abelian subgroup C1      NOp   1
                         Standard orientation:                         
 ---------------------------------------------------------------------
 Center     Atomic      Atomic             Coordinates (Angstroms)
 Number     Number       Type             X           Y           Z
 ---------------------------------------------------------------------
      1          8           0       -0.708478   -1.113777   -0.229971
      2          8           0       -0.727640    2.535883    0.201684
      3          8           0        2.038787    1.898627   -0.341610
      4          8           0        2.842605   -0.703846    0.298798
      5          8           0        0.872891   -2.734357   -0.080367
      6          8           0       -3.442455   -0.800519    0.198090
      7          6           0       -0.306815    1.260013   -0.248894
      8          6           0        1.116856    0.978201    0.199877
      9          6           0       -1.216141    0.129764    0.221203
     10          6           0        1.570863   -0.409853   -0.214982
     11          6           0        0.571369   -1.446452    0.290914
     12          6           0       -2.630327    0.227041   -0.311431
     13          1           0       -0.330289    1.313066   -1.342651
     14          1           0        1.148874    1.021319    1.304124
     15          1           0       -1.256087    0.127842    1.326578
     16          1           0        1.567755   -0.455728   -1.318391
     17          1           0        0.540843   -1.439450    1.389585
     18          1           0       -2.590164    0.203627   -1.410922
     19          1           0       -3.073988    1.177764   -0.009006
     20          1           0       -0.836079    2.503101    1.157311
     21          1           0        1.694379    2.784022   -0.189886
     22          1           0        3.404774    0.053877    0.109488
     23          1           0        1.084456   -2.746740   -1.018340
     24          1           0       -2.994989   -1.631072    0.008998
 ---------------------------------------------------------------------
 Rotational constants (GHZ):           1.1725024           0.7953308           0.4957244
 Leave Link  202 at Fri Nov  1 11:04:00 2024, MaxMem=  4294967296 cpu:               0.1 elap:               0.0
 (Enter /home/matma/Software/gaussian16.B01_files/AVX2/tar//g16/l301.exe)
 Standard basis: 6-311+G(d,p) (5D, 7F)
 Ernie: Thresh=  0.10000D-02 Tol=  0.10000D-05 Strict=F.
 There are   348 symmetry adapted cartesian basis functions of A   symmetry.
 There are   336 symmetry adapted basis functions of A   symmetry.
   336 basis functions,   528 primitive gaussians,   348 cartesian basis functions
    48 alpha electrons       48 beta electrons
       nuclear repulsion energy       828.2625677568 Hartrees.
 IExCor= 1009 DFT=T Ex+Corr=PBE1PBE ExCW=0 ScaHFX=  0.250000
 ScaDFX=  0.750000  0.750000  1.000000  1.000000 ScalE2=  1.000000  1.000000
 IRadAn=  99590 IRanWt=     -1 IRanGd=            0 ICorTp=0 IEmpDi=131
 NAtoms=   24 NActive=   24 NUniq=   24 SFac= 1.00D+00 NAtFMM=   60 NAOKFM=F Big=F
 Integral buffers will be    131072 words long.
 Raffenetti 2 integral format.
 Two-electron integral symmetry is turned on.
 R6Disp:  Grimme-D3 Dispersion energy=       -0.0157177824 Hartrees.
 Nuclear repulsion after empirical dispersion term =      828.2468499743 Hartrees.
 Leave Link  301 at Fri Nov  1 11:04:00 2024, MaxMem=  4294967296 cpu:               0.7 elap:               0.0
 (Enter /home/matma/Software/gaussian16.B01_files/AVX2/tar//g16/l302.exe)
 NPDir=0 NMtPBC=     1 NCelOv=     1 NCel=       1 NClECP=     1 NCelD=      1
         NCelK=      1 NCelE2=     1 NClLst=     1 CellRange=     0.0.
 One-electron integrals computed using PRISM.
 One-electron integral symmetry used in STVInt
 NBasis=   336 RedAO= T EigKep=  7.72D-06  NBF=   336
 NBsUse=   336 1.00D-06 EigRej= -1.00D+00 NBFU=   336
 Precomputing XC quadrature grid using
 IXCGrd= 4 IRadAn=       99590 IRanWt=          -1 IRanGd=           0 AccXCQ= 0.00D+00.
 Generated NRdTot=       0 NPtTot=           0 NUsed=           0 NTot=          32
 NSgBfM=   348   348   348   348   348 MxSgAt=    24 MxSgA2=    24.
 Leave Link  302 at Fri Nov  1 11:04:00 2024, MaxMem=  4294967296 cpu:               5.3 elap:               0.2
 (Enter /home/matma/Software/gaussian16.B01_files/AVX2/tar//g16/l303.exe)
 DipDrv:  MaxL=1.
 Leave Link  303 at Fri Nov  1 11:04:00 2024, MaxMem=  4294967296 cpu:               0.7 elap:               0.0
 (Enter /home/matma/Software/gaussian16.B01_files/AVX2/tar//g16/l401.exe)
 Initial guess from the checkpoint file:  "input.chk"
 B after Tr=    -0.000000   -0.000000    0.000000
         Rot=    1.000000   -0.000008   -0.000032   -0.000019 Ang=  -0.00 deg.
 Guess basis will be translated and rotated to current coordinates.
 JPrj=2 DoOrth=T DoCkMO=T.
 Generating alternative initial guess.
 ExpMin= 4.38D-02 ExpMax= 8.59D+03 ExpMxC= 1.30D+03 IAcc=4 IRadAn=    199590 AccDes= 0.00D+00
 Harris functional with IExCor= 1009 and IRadAn=  199590 diagonalized for initial guess.
 HarFok:  IExCor= 1009 AccDes= 0.00D+00 IRadAn=    199590 IDoV= 1 UseB2=F ITyADJ=14
 ICtDFT=  3500011 ScaDFX=  1.000000  1.000000  1.000000  1.000000
 FoFCou: FMM=F IPFlag=           0 FMFlag=      100000 FMFlg1=           0
         NFxFlg=           0 DoJE=T BraDBF=F KetDBF=T FulRan=T
         wScrn=  0.000000 ICntrl=       500 IOpCl=  0 I1Cent=   200000004 NGrid=           0
         NMat0=    1 NMatS0=      1 NMatT0=    0 NMatD0=    1 NMtDS0=    0 NMtDT0=    0
 Petite list used in FoFCou.
 Harris En= -686.792560169428    
 Leave Link  401 at Fri Nov  1 11:04:02 2024, MaxMem=  4294967296 cpu:              40.9 elap:               1.5
 (Enter /home/matma/Software/gaussian16.B01_files/AVX2/tar//g16/l502.exe)
 Integral symmetry usage will be decided dynamically.
 Closed shell SCF:
 Using DIIS extrapolation, IDIIS=  1040.
 NGot=  4294967296 LenX=  4294711890 LenY=  4294590345
 Requested convergence on RMS density matrix=1.00D-08 within 128 cycles.
 Requested convergence on MAX density matrix=1.00D-06.
 Requested convergence on             energy=1.00D-06.
 No special actions if energy rises.
 Fock matrices will be formed incrementally for  20 cycles.

 Cycle   1  Pass 1  IDiag  1:
 FoFJK:  IHMeth= 1 ICntrl=       0 DoSepK=F KAlg= 0 I1Cent=           0 FoldK=F
 IRaf= 920000000 NMat=       1 IRICut=       1 DoRegI=T DoRafI=F ISym2E= 0 IDoP0=0 IntGTp=1.
 FoFCou: FMM=F IPFlag=           0 FMFlag=      100000 FMFlg1=           0
         NFxFlg=           0 DoJE=F BraDBF=F KetDBF=F FulRan=T
         wScrn=  0.000000 ICntrl=         0 IOpCl=  0 I1Cent=           0 NGrid=           0
         NMat0=    1 NMatS0=      1 NMatT0=    0 NMatD0=    1 NMtDS0=    0 NMtDT0=    0
 Symmetry not used in FoFCou.
 E= -686.661703602312    
 DIIS: error= 2.83D-04 at cycle   1 NSaved=   1.
 NSaved= 1 IEnMin= 1 EnMin= -686.661703602312     IErMin= 1 ErrMin= 2.83D-04
 ErrMax= 2.83D-04  0.00D+00 EMaxC= 1.00D-01 BMatC= 9.31D-05 BMatP= 9.31D-05
 IDIUse=3 WtCom= 9.97D-01 WtEn= 2.83D-03
 Coeff-Com:  0.100D+01
 Coeff-En:   0.100D+01
 Coeff:      0.100D+01
 Gap=     0.605 Goal=   None    Shift=    0.000
 RMSDP=1.95D-04 MaxDP=1.45D-02              OVMax= 3.89D-03

 Cycle   2  Pass 1  IDiag  1:
 RMSU=  1.94D-04    CP:  1.00D+00
 E= -686.661818430279     Delta-E=       -0.000114827967 Rises=F Damp=F
 DIIS: error= 4.76D-05 at cycle   2 NSaved=   2.
 NSaved= 2 IEnMin= 2 EnMin= -686.661818430279     IErMin= 2 ErrMin= 4.76D-05
 ErrMax= 4.76D-05  0.00D+00 EMaxC= 1.00D-01 BMatC= 1.66D-06 BMatP= 9.31D-05
 IDIUse=1 WtCom= 1.00D+00 WtEn= 0.00D+00
 Coeff-Com: -0.558D-01 0.106D+01
 Coeff:     -0.558D-01 0.106D+01
 Gap=     0.278 Goal=   None    Shift=    0.000
 RMSDP=1.85D-05 MaxDP=1.70D-03 DE=-1.15D-04 OVMax= 5.19D-04

 Cycle   3  Pass 1  IDiag  1:
 RMSU=  1.69D-05    CP:  1.00D+00  1.03D+00
 E= -686.661819376399     Delta-E=       -0.000000946119 Rises=F Damp=F
 DIIS: error= 3.97D-05 at cycle   3 NSaved=   3.
 NSaved= 3 IEnMin= 3 EnMin= -686.661819376399     IErMin= 3 ErrMin= 3.97D-05
 ErrMax= 3.97D-05  0.00D+00 EMaxC= 1.00D-01 BMatC= 1.17D-06 BMatP= 1.66D-06
 IDIUse=1 WtCom= 1.00D+00 WtEn= 0.00D+00
 Coeff-Com: -0.350D-01 0.505D+00 0.530D+00
 Coeff:     -0.350D-01 0.505D+00 0.530D+00
 Gap=     0.278 Goal=   None    Shift=    0.000
 RMSDP=6.44D-06 MaxDP=5.10D-04 DE=-9.46D-07 OVMax= 1.78D-04

 Cycle   4  Pass 1  IDiag  1:
 RMSU=  5.31D-06    CP:  1.00D+00  1.04D+00  7.92D-01
 E= -686.661820097479     Delta-E=       -0.000000721080 Rises=F Damp=F
 DIIS: error= 1.18D-05 at cycle   4 NSaved=   4.
 NSaved= 4 IEnMin= 4 EnMin= -686.661820097479     IErMin= 4 ErrMin= 1.18D-05
 ErrMax= 1.18D-05  0.00D+00 EMaxC= 1.00D-01 BMatC= 1.27D-07 BMatP= 1.17D-06
 IDIUse=1 WtCom= 1.00D+00 WtEn= 0.00D+00
 Coeff-Com: -0.697D-02 0.862D-01 0.265D+00 0.656D+00
 Coeff:     -0.697D-02 0.862D-01 0.265D+00 0.656D+00
 Gap=     0.278 Goal=   None    Shift=    0.000
 RMSDP=2.62D-06 MaxDP=2.08D-04 DE=-7.21D-07 OVMax= 6.28D-05

 Cycle   5  Pass 1  IDiag  1:
 RMSU=  1.75D-06    CP:  1.00D+00  1.04D+00  7.78D-01  6.71D-01
 E= -686.661820182742     Delta-E=       -0.000000085263 Rises=F Damp=F
 DIIS: error= 1.78D-06 at cycle   5 NSaved=   5.
 NSaved= 5 IEnMin= 5 EnMin= -686.661820182742     IErMin= 5 ErrMin= 1.78D-06
 ErrMax= 1.78D-06  0.00D+00 EMaxC= 1.00D-01 BMatC= 3.29D-09 BMatP= 1.27D-07
 IDIUse=1 WtCom= 1.00D+00 WtEn= 0.00D+00
 Coeff-Com: -0.933D-03 0.464D-02 0.718D-01 0.239D+00 0.686D+00
 Coeff:     -0.933D-03 0.464D-02 0.718D-01 0.239D+00 0.686D+00
 Gap=     0.278 Goal=   None    Shift=    0.000
 RMSDP=7.96D-07 MaxDP=6.58D-05 DE=-8.53D-08 OVMax= 1.29D-05

 Cycle   6  Pass 1  IDiag  1:
 RMSU=  5.58D-07    CP:  1.00D+00  1.04D+00  7.90D-01  7.19D-01  8.34D-01
 E= -686.661820185030     Delta-E=       -0.000000002289 Rises=F Damp=F
 DIIS: error= 1.01D-06 at cycle   6 NSaved=   6.
 NSaved= 6 IEnMin= 6 EnMin= -686.661820185030     IErMin= 6 ErrMin= 1.01D-06
 ErrMax= 1.01D-06  0.00D+00 EMaxC= 1.00D-01 BMatC= 8.16D-10 BMatP= 3.29D-09
 IDIUse=1 WtCom= 1.00D+00 WtEn= 0.00D+00
 Coeff-Com:  0.457D-03-0.108D-01 0.548D-02 0.502D-01 0.375D+00 0.580D+00
 Coeff:      0.457D-03-0.108D-01 0.548D-02 0.502D-01 0.375D+00 0.580D+00
 Gap=     0.278 Goal=   None    Shift=    0.000
 RMSDP=2.30D-07 MaxDP=2.29D-05 DE=-2.29D-09 OVMax= 4.63D-06

 Cycle   7  Pass 1  IDiag  1:
 RMSU=  1.39D-07    CP:  1.00D+00  1.04D+00  7.92D-01  7.18D-01  8.62D-01
                    CP:  7.43D-01
 E= -686.661820185664     Delta-E=       -0.000000000633 Rises=F Damp=F
 DIIS: error= 2.31D-07 at cycle   7 NSaved=   7.
 NSaved= 7 IEnMin= 7 EnMin= -686.661820185664     IErMin= 7 ErrMin= 2.31D-07
 ErrMax= 2.31D-07  0.00D+00 EMaxC= 1.00D-01 BMatC= 4.14D-11 BMatP= 8.16D-10
 IDIUse=1 WtCom= 1.00D+00 WtEn= 0.00D+00
 Coeff-Com:  0.287D-03-0.600D-02-0.315D-03 0.155D-01 0.161D+00 0.294D+00
 Coeff-Com:  0.535D+00
 Coeff:      0.287D-03-0.600D-02-0.315D-03 0.155D-01 0.161D+00 0.294D+00
 Coeff:      0.535D+00
 Gap=     0.278 Goal=   None    Shift=    0.000
 RMSDP=6.41D-08 MaxDP=6.54D-06 DE=-6.33D-10 OVMax= 9.54D-07

 Cycle   8  Pass 1  IDiag  1:
 RMSU=  5.44D-08    CP:  1.00D+00  1.04D+00  7.91D-01  7.17D-01  8.73D-01
                    CP:  7.26D-01  9.82D-01
 E= -686.661820185688     Delta-E=       -0.000000000024 Rises=F Damp=F
 DIIS: error= 6.05D-08 at cycle   8 NSaved=   8.
 NSaved= 8 IEnMin= 8 EnMin= -686.661820185688     IErMin= 8 ErrMin= 6.05D-08
 ErrMax= 6.05D-08  0.00D+00 EMaxC= 1.00D-01 BMatC= 3.60D-12 BMatP= 4.14D-11
 IDIUse=1 WtCom= 1.00D+00 WtEn= 0.00D+00
 Coeff-Com:  0.599D-04-0.101D-02-0.831D-03-0.422D-03 0.126D-01 0.368D-01
 Coeff-Com:  0.239D+00 0.714D+00
 Coeff:      0.599D-04-0.101D-02-0.831D-03-0.422D-03 0.126D-01 0.368D-01
 Coeff:      0.239D+00 0.714D+00
 Gap=     0.278 Goal=   None    Shift=    0.000
 RMSDP=2.18D-08 MaxDP=2.49D-06 DE=-2.41D-11 OVMax= 4.38D-07

 Cycle   9  Pass 1  IDiag  1:
 RMSU=  1.65D-08    CP:  1.00D+00  1.04D+00  7.91D-01  7.18D-01  8.75D-01
                    CP:  7.24D-01  1.05D+00  1.08D+00
 E= -686.661820185696     Delta-E=       -0.000000000009 Rises=F Damp=F
 DIIS: error= 1.72D-08 at cycle   9 NSaved=   9.
 NSaved= 9 IEnMin= 9 EnMin= -686.661820185696     IErMin= 9 ErrMin= 1.72D-08
 ErrMax= 1.72D-08  0.00D+00 EMaxC= 1.00D-01 BMatC= 2.85D-13 BMatP= 3.60D-12
 IDIUse=1 WtCom= 1.00D+00 WtEn= 0.00D+00
 Coeff-Com:  0.251D-05 0.612D-04-0.277D-03-0.123D-02-0.732D-02-0.804D-02
 Coeff-Com:  0.547D-01 0.303D+00 0.659D+00
 Coeff:      0.251D-05 0.612D-04-0.277D-03-0.123D-02-0.732D-02-0.804D-02
 Coeff:      0.547D-01 0.303D+00 0.659D+00
 Gap=     0.278 Goal=   None    Shift=    0.000
 RMSDP=7.31D-09 MaxDP=3.55D-07 DE=-8.64D-12 OVMax= 1.07D-07

 SCF Done:  E(RPBE1PBE) =  -686.661820186     A.U. after    9 cycles
            NFock=  9  Conv=0.73D-08     -V/T= 2.0032
 KE= 6.844641503837D+02 PE=-3.269785335463D+03 EE= 1.070412514919D+03
 Leave Link  502 at Fri Nov  1 11:04:15 2024, MaxMem=  4294967296 cpu:             366.2 elap:              13.1
 (Enter /home/matma/Software/gaussian16.B01_files/AVX2/tar//g16/l701.exe)
 ... and contract with generalized density number  0.
 Compute integral first derivatives.
 R6Disp: Adding Grimme-D3 dispersion energy 1st derivatives to the gradient.
 Leave Link  701 at Fri Nov  1 11:04:15 2024, MaxMem=  4294967296 cpu:               3.7 elap:               0.1
 (Enter /home/matma/Software/gaussian16.B01_files/AVX2/tar//g16/l702.exe)
 L702 exits ... SP integral derivatives will be done elsewhere.
 Leave Link  702 at Fri Nov  1 11:04:15 2024, MaxMem=  4294967296 cpu:               0.3 elap:               0.0
 (Enter /home/matma/Software/gaussian16.B01_files/AVX2/tar//g16/l703.exe)
 Integral derivatives from FoFJK, PRISM(SPDF).
 Compute integral first derivatives, UseDBF=F ICtDFT=           0.
 Calling FoFJK, ICntrl=      2127 FMM=F ISym2X=0 I1Cent= 0 IOpClX= 0 NMat=1 NMatS=1 NMatT=0.
 FoFJK:  IHMeth= 1 ICntrl=    2127 DoSepK=F KAlg= 0 I1Cent=           0 FoldK=F
 IRaf=         0 NMat=       1 IRICut=       1 DoRegI=T DoRafI=F ISym2E= 0 IDoP0=0 IntGTp=1.
 FoFCou: FMM=F IPFlag=           0 FMFlag=      100000 FMFlg1=         800
         NFxFlg=           0 DoJE=F BraDBF=F KetDBF=F FulRan=T
         wScrn=  0.000000 ICntrl=      2127 IOpCl=  0 I1Cent=           0 NGrid=           0
         NMat0=    1 NMatS0=      1 NMatT0=    0 NMatD0=    1 NMtDS0=    0 NMtDT0=    0
 Symmetry not used in FoFCou.
 Leave Link  703 at Fri Nov  1 11:04:20 2024, MaxMem=  4294967296 cpu:             123.7 elap:               4.4
 (Enter /home/matma/Software/gaussian16.B01_files/AVX2/tar//g16/l716.exe)
 Dipole        = 3.22998158D-01 9.52739880D-01-7.26895089D-02
 ***** Axes restored to original set *****
 -------------------------------------------------------------------
 Center     Atomic                   Forces (Hartrees/Bohr)
 Number     Number              X              Y              Z
 -------------------------------------------------------------------
      1        8          -0.000073581    0.000054280    0.000015473
      2        8           0.000012271    0.000005823   -0.000023484
      3        8          -0.000068320   -0.000055142   -0.000109080
      4        8           0.000108218   -0.000044482   -0.000113799
      5        8          -0.000057258   -0.000000304    0.000041552
      6        8           0.000004515   -0.000004093    0.000006777
      7        6          -0.000029300   -0.000110585   -0.000016211
      8        6           0.000089712   -0.000063543    0.000079227
      9        6          -0.000010457    0.000018265   -0.000004660
     10        6          -0.000007743   -0.000022627    0.000080903
     11        6           0.000066160    0.000157444   -0.000000073
     12        6          -0.000000377   -0.000006402   -0.000002322
     13        1           0.000004005    0.000036817   -0.000010251
     14        1          -0.000085286   -0.000050610   -0.000039405
     15        1          -0.000001032    0.000004600   -0.000000541
     16        1           0.000001992   -0.000025949   -0.000068893
     17        1          -0.000017725   -0.000030916    0.000002976
     18        1          -0.000003368    0.000000903   -0.000001707
     19        1           0.000002635   -0.000005129   -0.000002776
     20        1          -0.000019052   -0.000004613    0.000008414
     21        1          -0.000005716    0.000000329    0.000059414
     22        1           0.000078299    0.000151245    0.000115035
     23        1           0.000008681   -0.000003739   -0.000011566
     24        1           0.000002728   -0.000001575   -0.000005004
 -------------------------------------------------------------------
 Cartesian Forces:  Max     0.000157444 RMS     0.000052087
 Leave Link  716 at Fri Nov  1 11:04:20 2024, MaxMem=  4294967296 cpu:               0.4 elap:               0.0
 (Enter /home/matma/Software/gaussian16.B01_files/AVX2/tar//g16/l103.exe)

 GradGradGradGradGradGradGradGradGradGradGradGradGradGradGradGradGradGrad
 Berny optimization.
 Using GEDIIS/GDIIS optimizer.
 FormGI is forming the generalized inverse of G from B-inverse, IUseBI=4.
 Internal  Forces:  Max     0.000239091 RMS     0.000046050
 Search for a local minimum.
 Step number  12 out of a maximum of  142
 All quantities printed in internal units (Hartrees-Bohrs-Radians)
 RMS Force = .46050D-04 SwitMx=.10000D-02 MixMth= 2
 Mixed Optimization -- En-DIIS/RFO-DIIS
 Swapping is turned off.
 Update second derivatives using D2CorX and points    7    9   10   11   12
 DE= -1.62D-05 DEPred=-1.17D-05 R= 1.39D+00
 TightC=F SS=  1.41D+00  RLast= 5.33D-02 DXNew= 2.0182D+00 1.6001D-01
 Trust test= 1.39D+00 RLast= 5.33D-02 DXMaxT set to 1.20D+00
 ITU=  1  1  0  1 -1  1  0  1  0  1  1  0
     Eigenvalues ---    0.00257   0.00310   0.00344   0.00448   0.00487
     Eigenvalues ---    0.00633   0.00778   0.00837   0.00904   0.02364
     Eigenvalues ---    0.02436   0.03671   0.04161   0.04655   0.04892
     Eigenvalues ---    0.05086   0.05273   0.05663   0.05830   0.05996
     Eigenvalues ---    0.06285   0.06602   0.06888   0.07017   0.07123
     Eigenvalues ---    0.08505   0.09453   0.09719   0.10915   0.12203
     Eigenvalues ---    0.14049   0.14774   0.15804   0.15978   0.16920
     Eigenvalues ---    0.17084   0.17595   0.18389   0.19562   0.20502
     Eigenvalues ---    0.20609   0.23886   0.24389   0.25076   0.26750
     Eigenvalues ---    0.28436   0.29094   0.29970   0.31340   0.31593
     Eigenvalues ---    0.32849   0.33050   0.33125   0.33347   0.33874
     Eigenvalues ---    0.34317   0.36473   0.37127   0.39185   0.39796
     Eigenvalues ---    0.41401   0.49723   0.49800   0.49866   0.49932
     Eigenvalues ---    0.50209
 En-DIIS/RFO-DIIS/Sim-DIIS IScMMF=       -3 using points:    12   11   10    9
 RFO step:  Lambda=-7.57672498D-06.
 NNeg= 0 NGDIIS= 4 SimSw=  2.50D-01 Rises=F DC= -1.62D-05 SmlDif=  1.00D-05
 NRisDI= 0 DoIntr=F SqrtH=F CThrHd= 10.0 CDAdj=  3.0
 RMS Error=  0.3040726283D-02 NUsed= 4 OKEnD=T EnDIS=F
 InvSVX:  RCond= 8.02D-05 Info=           0 Equed=N FErr=  1.60D-14 BErr=  3.35D-17
 DidBck=F Rises=F RFO-DIIS coefs:    1.76314   -0.89796    0.14700   -0.01219
 Iteration  1 RMS(Cart)=  0.00290679 RMS(Int)=  0.00002331
 Iteration  2 RMS(Cart)=  0.00002262 RMS(Int)=  0.00000032
 Iteration  3 RMS(Cart)=  0.00000000 RMS(Int)=  0.00000032
 ITry= 1 IFail=0 DXMaxC= 1.74D-02 DCOld= 1.00D+10 DXMaxT= 1.20D+00 DXLimC= 3.00D+00 Rises=F
 Variable       Old X    -DE/DX   Delta X   Delta X   Delta X     New X
                                 (Linear)    (Quad)   (Total)
    R1        2.67760   0.00002  -0.00006   0.00013   0.00007   2.67767
    R2        2.68581   0.00005   0.00024  -0.00004   0.00019   2.68600
    R3        2.67779   0.00001  -0.00004  -0.00001  -0.00005   2.67773
    R4        1.81852  -0.00001   0.00002  -0.00004  -0.00001   1.81850
    R5        2.66602  -0.00003   0.00006  -0.00034  -0.00028   2.66574
    R6        1.81803  -0.00001   0.00012  -0.00010   0.00002   1.81805
    R7        2.65083   0.00019   0.00033   0.00002   0.00035   2.65118
    R8        1.81848  -0.00006  -0.00017  -0.00006  -0.00022   1.81826
    R9        2.59620  -0.00001  -0.00002  -0.00012  -0.00014   2.59606
   R10        1.81719  -0.00001  -0.00007   0.00002  -0.00005   1.81714
   R11        2.65575  -0.00001  -0.00005   0.00006   0.00001   2.65576
   R12        1.81827   0.00000   0.00001  -0.00000   0.00001   1.81827
   R13        2.87068   0.00004  -0.00002   0.00031   0.00029   2.87097
   R14        2.88165   0.00005  -0.00016   0.00017   0.00000   2.88165
   R15        2.06981  -0.00001   0.00000   0.00000   0.00001   2.06981
   R16        2.86898   0.00024   0.00035   0.00028   0.00064   2.86961
   R17        2.08919   0.00004   0.00001   0.00005   0.00006   2.08925
   R18        2.86160  -0.00001   0.00001  -0.00002  -0.00001   2.86159
   R19        2.09022   0.00000   0.00001  -0.00003  -0.00002   2.09020
   R20        2.88420   0.00012   0.00048  -0.00001   0.00048   2.88468
   R21        2.08695  -0.00007  -0.00022  -0.00002  -0.00024   2.08672
   R22        2.07703  -0.00000  -0.00005   0.00006   0.00000   2.07703
   R23        2.07959  -0.00000   0.00001  -0.00001  -0.00000   2.07959
   R24        2.06333   0.00000  -0.00002   0.00002   0.00001   2.06333
    A1        1.99475   0.00002   0.00032  -0.00034  -0.00002   1.99472
    A2        1.89500   0.00002  -0.00011   0.00025   0.00014   1.89514
    A3        1.88174   0.00003  -0.00070   0.00061  -0.00010   1.88164
    A4        1.86769   0.00013   0.00043   0.00031   0.00073   1.86842
    A5        1.90071  -0.00000   0.00014  -0.00004   0.00010   1.90081
    A6        1.86622  -0.00000  -0.00008   0.00004  -0.00004   1.86618
    A7        1.92988   0.00000   0.00004  -0.00001   0.00002   1.92990
    A8        1.97387  -0.00002   0.00029   0.00007   0.00036   1.97422
    A9        1.84165   0.00001   0.00011   0.00002   0.00013   1.84178
   A10        1.90740   0.00001   0.00002   0.00006   0.00008   1.90749
   A11        1.90083  -0.00001  -0.00007   0.00003  -0.00004   1.90079
   A12        1.90813  -0.00001  -0.00040  -0.00017  -0.00057   1.90755
   A13        1.95845  -0.00003  -0.00076   0.00023  -0.00053   1.95792
   A14        1.87150   0.00007   0.00013   0.00052   0.00065   1.87214
   A15        1.91664  -0.00000   0.00019   0.00009   0.00028   1.91692
   A16        1.94888  -0.00002  -0.00043  -0.00010  -0.00053   1.94835
   A17        1.89123  -0.00006   0.00059  -0.00103  -0.00043   1.89080
   A18        1.87542   0.00005   0.00031   0.00032   0.00063   1.87605
   A19        1.91631   0.00003  -0.00041   0.00011  -0.00031   1.91601
   A20        1.85353  -0.00002  -0.00006   0.00001  -0.00005   1.85348
   A21        1.90670  -0.00000   0.00008  -0.00002   0.00006   1.90676
   A22        1.98324  -0.00001   0.00010  -0.00006   0.00004   1.98328
   A23        1.90806  -0.00001   0.00022   0.00002   0.00024   1.90829
   A24        1.89430   0.00001   0.00007  -0.00006   0.00001   1.89432
   A25        1.94190   0.00014   0.00003   0.00079   0.00082   1.94272
   A26        1.90705  -0.00006   0.00009  -0.00093  -0.00084   1.90621
   A27        1.93884  -0.00004   0.00023  -0.00015   0.00007   1.93891
   A28        1.91192  -0.00003   0.00021   0.00033   0.00054   1.91246
   A29        1.88616  -0.00002  -0.00071   0.00015  -0.00056   1.88560
   A30        1.87666  -0.00000   0.00016  -0.00021  -0.00005   1.87662
   A31        1.89443  -0.00005  -0.00041   0.00011  -0.00030   1.89413
   A32        1.88520   0.00001   0.00055  -0.00032   0.00023   1.88543
   A33        1.91755   0.00000  -0.00039  -0.00001  -0.00040   1.91714
   A34        1.98601   0.00004   0.00027  -0.00007   0.00020   1.98622
   A35        1.85689   0.00002   0.00005   0.00039   0.00044   1.85733
   A36        1.92324  -0.00002  -0.00011  -0.00009  -0.00020   1.92303
   A37        1.94462  -0.00001   0.00002  -0.00009  -0.00007   1.94455
   A38        1.94740   0.00000   0.00001  -0.00006  -0.00005   1.94735
   A39        1.87698   0.00001   0.00001   0.00003   0.00003   1.87701
   A40        1.89228   0.00000  -0.00008   0.00015   0.00007   1.89234
   A41        1.91557   0.00000   0.00007  -0.00003   0.00004   1.91561
   A42        1.88608  -0.00000  -0.00002   0.00001  -0.00001   1.88607
    D1        1.09892  -0.00001   0.00003   0.00064   0.00067   1.09959
    D2       -3.03324  -0.00001  -0.00013   0.00064   0.00051  -3.03273
    D3       -0.99338  -0.00002  -0.00003   0.00057   0.00053  -0.99284
    D4        3.00926  -0.00000   0.00094  -0.00049   0.00045   3.00970
    D5       -1.11298   0.00002   0.00135  -0.00070   0.00065  -1.11233
    D6        0.98542   0.00000   0.00132  -0.00101   0.00031   0.98573
    D7       -1.21873  -0.00001  -0.00043   0.00038  -0.00005  -1.21878
    D8        0.92677  -0.00001  -0.00017   0.00051   0.00034   0.92710
    D9        3.01174  -0.00001  -0.00043   0.00035  -0.00008   3.01166
   D10        0.85965  -0.00006  -0.00565  -0.00203  -0.00768   0.85197
   D11        3.00573  -0.00006  -0.00658  -0.00165  -0.00823   2.99750
   D12       -1.24489   0.00003  -0.00603  -0.00094  -0.00697  -1.25187
   D13       -0.83587  -0.00011  -0.01808  -0.00006  -0.01815  -0.85402
   D14       -2.94919  -0.00013  -0.01842  -0.00037  -0.01879  -2.96798
   D15        1.26634  -0.00007  -0.01881   0.00056  -0.01825   1.24809
   D16        1.27743   0.00001   0.00332  -0.00043   0.00289   1.28033
   D17       -0.82199   0.00001   0.00275  -0.00006   0.00268  -0.81931
   D18       -2.94304  -0.00000   0.00268  -0.00017   0.00250  -2.94054
   D19       -0.93765   0.00000   0.00070  -0.00017   0.00052  -0.93713
   D20        1.18015   0.00000   0.00061  -0.00009   0.00052   1.18067
   D21       -3.03757   0.00001   0.00060  -0.00010   0.00050  -3.03707
   D22       -1.08571   0.00004   0.00114   0.00002   0.00116  -1.08455
   D23        3.09565  -0.00001   0.00181  -0.00073   0.00107   3.09673
   D24        1.03347  -0.00003   0.00130  -0.00042   0.00088   1.03435
   D25        3.01380   0.00005   0.00073  -0.00010   0.00063   3.01444
   D26        0.91198  -0.00000   0.00140  -0.00086   0.00054   0.91252
   D27       -1.15020  -0.00002   0.00089  -0.00054   0.00035  -1.14985
   D28        0.93032   0.00005   0.00125   0.00005   0.00130   0.93162
   D29       -1.17150   0.00000   0.00191  -0.00070   0.00121  -1.17029
   D30        3.04950  -0.00002   0.00141  -0.00039   0.00102   3.05052
   D31       -3.10820  -0.00001  -0.00185   0.00005  -0.00181  -3.11000
   D32        1.10224  -0.00000  -0.00156   0.00000  -0.00156   1.10069
   D33       -1.01673  -0.00000  -0.00188   0.00010  -0.00177  -1.01850
   D34       -0.95028  -0.00001  -0.00159   0.00013  -0.00146  -0.95175
   D35       -3.02303  -0.00000  -0.00129   0.00008  -0.00121  -3.02424
   D36        1.14119  -0.00000  -0.00161   0.00018  -0.00143   1.13975
   D37        1.12868  -0.00002  -0.00190   0.00009  -0.00181   1.12688
   D38       -0.94406  -0.00001  -0.00161   0.00005  -0.00156  -0.94562
   D39       -3.06303  -0.00000  -0.00192   0.00015  -0.00177  -3.06481
   D40        1.07616   0.00003   0.00116   0.00029   0.00145   1.07761
   D41       -3.09656   0.00003   0.00143  -0.00015   0.00129  -3.09527
   D42       -1.05684   0.00001   0.00133  -0.00012   0.00121  -1.05563
   D43       -3.05504   0.00002   0.00003   0.00086   0.00089  -3.05414
   D44       -0.94457   0.00002   0.00030   0.00043   0.00073  -0.94384
   D45        1.09515  -0.00000   0.00020   0.00045   0.00066   1.09580
   D46       -0.98341  -0.00002   0.00071  -0.00025   0.00045  -0.98296
   D47        1.12705  -0.00002   0.00098  -0.00068   0.00029   1.12735
   D48       -3.11641  -0.00005   0.00088  -0.00066   0.00022  -3.11620
   D49        1.08034  -0.00001  -0.00034   0.00022  -0.00012   1.08022
   D50       -1.06926  -0.00001  -0.00031   0.00026  -0.00005  -1.06932
   D51       -3.12580  -0.00001  -0.00028   0.00018  -0.00010  -3.12590
   D52       -3.09445   0.00001  -0.00084   0.00032  -0.00051  -3.09496
   D53        1.03914   0.00001  -0.00081   0.00036  -0.00045   1.03869
   D54       -1.01740   0.00001  -0.00077   0.00028  -0.00049  -1.01789
   D55       -0.96782  -0.00000  -0.00044   0.00026  -0.00017  -0.96799
   D56       -3.11742   0.00000  -0.00041   0.00030  -0.00011  -3.11753
   D57        1.10923  -0.00000  -0.00037   0.00022  -0.00015   1.10908
   D58        3.12826   0.00009  -0.00127   0.00099  -0.00029   3.12798
   D59       -1.05031   0.00005  -0.00124   0.00086  -0.00038  -1.05068
   D60        1.03344   0.00009  -0.00107   0.00125   0.00018   1.03362
   D61        0.99682  -0.00004  -0.00150   0.00039  -0.00111   0.99571
   D62        3.10143  -0.00007  -0.00147   0.00027  -0.00120   3.10023
   D63       -1.09800  -0.00004  -0.00129   0.00065  -0.00064  -1.09864
   D64       -1.04887   0.00000  -0.00086   0.00015  -0.00071  -1.04958
   D65        1.05575  -0.00003  -0.00082   0.00002  -0.00080   1.05495
   D66        3.13949   0.00001  -0.00065   0.00041  -0.00024   3.13925
         Item               Value     Threshold  Converged?
 Maximum Force            0.000239     0.000450     YES
 RMS     Force            0.000046     0.000300     YES
 Maximum Displacement     0.017379     0.001800     NO 
 RMS     Displacement     0.002910     0.001200     NO 
 Predicted change in Energy=-3.770087D-06
 Lowest energy point so far.  Saving SCF results.
 GradGradGradGradGradGradGradGradGradGradGradGradGradGradGradGradGradGrad

 Leave Link  103 at Fri Nov  1 11:04:20 2024, MaxMem=  4294967296 cpu:               0.6 elap:               0.0
 (Enter /home/matma/Software/gaussian16.B01_files/AVX2/tar//g16/l202.exe)
                          Input orientation:                          
 ---------------------------------------------------------------------
 Center     Atomic      Atomic             Coordinates (Angstroms)
 Number     Number       Type             X           Y           Z
 ---------------------------------------------------------------------
      1          8           0       -0.655667    1.140403    0.251261
      2          8           0       -0.858472   -2.485713   -0.311885
      3          8           0        1.955810   -1.989947    0.114818
      4          8           0        2.844212    0.601183   -0.468925
      5          8           0        0.987356    2.696460    0.085286
      6          8           0       -3.417900    0.961778   -0.054003
      7          6           0       -0.359810   -1.247073    0.162437
      8          6           0        1.051991   -1.009878   -0.346168
      9          6           0       -1.239100   -0.061558   -0.220622
     10          6           0        1.587040    0.340534    0.096614
     11          6           0        0.611551    1.438553   -0.319315
     12          6           0       -2.629497   -0.119025    0.376507
     13          1           0       -0.333048   -1.340232    1.253439
     14          1           0        1.028351   -1.011720   -1.451498
     15          1           0       -1.331034   -0.014472   -1.321877
     16          1           0        1.639346    0.342620    1.199614
     17          1           0        0.527951    1.476564   -1.414591
     18          1           0       -2.536544   -0.140712    1.472833
     19          1           0       -3.129065   -1.037161    0.060858
     20          1           0       -1.011196   -2.412316   -1.259160
     21          1           0        1.561440   -2.852672   -0.045685
     22          1           0        3.386926   -0.179693   -0.322351
     23          1           0        1.246171    2.661781    1.010740
     24          1           0       -2.925013    1.764195    0.143474
 ---------------------------------------------------------------------
                    Distance matrix (angstroms):
                    1          2          3          4          5
     1  O    0.000000
     2  O    3.675185   0.000000
     3  O    4.078912   2.889298   0.000000
     4  O    3.613665   4.823221   2.800709   0.000000
     5  O    2.269005   5.515410   4.785519   2.853988   0.000000
     6  O    2.784785   4.301438   6.133346   6.286194   4.736539
     7  C    2.407377   1.416995   2.432329   3.752389   4.168005
     8  C    2.810111   2.414361   1.410650   2.413015   3.731926
     9  C    1.416961   2.455552   3.746819   4.144190   3.557717
    10  C    2.386093   3.759665   2.359548   1.402944   2.431077
    11  C    1.421369   4.190572   3.708115   2.389215   1.373776
    12  C    2.344750   3.035066   4.959220   5.585243   4.592755
    13  H    2.694809   2.009586   2.637699   4.102512   4.404876
    14  H    3.219773   2.651693   2.066508   2.619973   4.014223
    15  H    2.065096   2.711168   4.095111   4.305721   3.834605
    16  H    2.608240   4.064873   2.591872   2.074267   2.684657
    17  H    2.070994   4.340250   4.049021   2.650593   1.987167
    18  H    2.582866   3.391191   5.044315   5.768307   4.732093
    19  H    3.300870   2.718976   5.173651   6.216501   5.557468
    20  H    3.876801   0.962311   3.296867   4.956795   5.648127
    21  H    4.576941   2.462011   0.962072   3.708605   5.580286
    22  H    4.291181   4.831278   2.348666   0.962180   3.767805
    23  H    2.551154   5.716254   4.790078   2.998201   0.961589
    24  H    2.355985   4.747595   6.157665   5.917058   4.022329
                    6          7          8          9         10
     6  O    0.000000
     7  C    3.778595   0.000000
     8  C    4.894151   1.519251   0.000000
     9  C    2.412913   1.524903   2.482775   0.000000
    10  C    5.045598   2.512977   1.518534   2.872174   0.000000
    11  C    4.066224   2.896242   2.487875   2.384320   1.526506
    12  C    1.405366   2.543580   3.856064   1.514289   4.250732
    13  H    4.065091   1.095299   2.141544   2.151462   2.801778
    14  H    5.061307   2.141767   1.105584   2.749399   2.130112
    15  H    2.629748   2.160039   2.760734   1.106088   3.263940
    16  H    5.246965   2.756716   2.136277   3.235101   1.104242
    17  H    4.205466   3.270066   2.756544   2.629420   2.167019
    18  H    2.079303   2.771163   4.116042   2.134811   4.373732
    19  H    2.022962   2.779057   4.200911   2.145461   4.913347
    20  H    4.316148   1.950137   2.656526   2.580032   4.020838
    21  H    6.272473   2.512461   1.935386   3.957770   3.196478
    22  H    6.905115   3.925856   2.478244   4.628652   1.919832
    23  H    5.077130   4.310213   3.919182   3.887082   2.517937
    24  H    0.962189   3.955801   4.873581   2.511622   4.731557
                   11         12         13         14         15
    11  C    0.000000
    12  C    3.662596   0.000000
    13  H    3.329785   2.744819   0.000000
    14  H    2.731190   4.185493   3.045982   0.000000
    15  H    2.624890   2.140431   3.063636   2.564761   0.000000
    16  H    2.136488   4.371915   2.593303   3.039070   3.912619
    17  H    1.099119   3.965276   3.974171   2.538369   2.384870
    18  H    3.951756   1.100473   2.518407   4.692424   3.046243
    19  H    4.501767   1.091869   3.054802   4.424023   2.488125
    20  H    4.283201   3.248613   2.814676   2.481615   2.419894
    21  H    4.403609   5.021456   2.750324   2.376888   4.248582
    22  H    3.212699   6.057180   4.203352   2.744106   4.825505
    23  H    1.915223   4.812062   4.309170   4.427717   4.386960
    24  H    3.581550   1.920457   4.193777   5.087113   2.802084
                   16         17         18         19         20
    16  H    0.000000
    17  H    3.058610   0.000000
    18  H    4.212637   4.510424   0.000000
    19  H    5.092966   4.676487   1.774366   0.000000
    20  H    4.545395   4.185274   3.866608   2.849363   0.000000
    21  H    3.430266   4.656638   5.143354   5.030732   2.878348
    22  H    2.375548   3.479930   6.189645   6.583331   5.020527
    23  H    2.359824   2.793352   4.730374   5.807508   5.999551
    24  H    4.895883   3.799112   2.355159   2.809993   4.803470
                   21         22         23         24
    21  H    0.000000
    22  H    3.248655   0.000000
    23  H    5.623577   3.799202   0.000000
    24  H    6.440458   6.620896   4.353916   0.000000
 Stoichiometry    C6H12O6
 Framework group  C1[X(C6H12O6)]
 Deg. of freedom    66
 Full point group                 C1      NOp   1
 RotChk:  IX=0 Diff= 9.23D-04
 Largest Abelian subgroup         C1      NOp   1
 Largest concise Abelian subgroup C1      NOp   1
                         Standard orientation:                         
 ---------------------------------------------------------------------
 Center     Atomic      Atomic             Coordinates (Angstroms)
 Number     Number       Type             X           Y           Z
 ---------------------------------------------------------------------
      1          8           0       -0.707894   -1.114013   -0.230432
      2          8           0       -0.729235    2.535819    0.199983
      3          8           0        2.037167    1.900961   -0.340404
      4          8           0        2.842840   -0.703554    0.300970
      5          8           0        0.874032   -2.733870   -0.082252
      6          8           0       -3.441741   -0.802546    0.198630
      7          6           0       -0.307332    1.259734   -0.248882
      8          6           0        1.116483    0.979393    0.200877
      9          6           0       -1.216060    0.129105    0.221459
     10          6           0        1.571521   -0.408721   -0.213882
     11          6           0        0.572113   -1.446542    0.290432
     12          6           0       -2.630470    0.225806   -0.310671
     13          1           0       -0.330351    1.311325   -1.342723
     14          1           0        1.147338    1.023037    1.305169
     15          1           0       -1.255623    0.126764    1.326837
     16          1           0        1.569373   -0.453786   -1.317202
     17          1           0        0.540955   -1.440411    1.389092
     18          1           0       -2.590722    0.202926   -1.410188
     19          1           0       -3.074636    1.176106   -0.007646
     20          1           0       -0.838146    2.504215    1.155588
     21          1           0        1.688004    2.785578   -0.195073
     22          1           0        3.410222    0.046678    0.098438
     23          1           0        1.088247   -2.744797   -1.019613
     24          1           0       -2.993537   -1.632665    0.009361
 ---------------------------------------------------------------------
 Rotational constants (GHZ):           1.1720955           0.7953931           0.4956715
 Leave Link  202 at Fri Nov  1 11:04:20 2024, MaxMem=  4294967296 cpu:               0.1 elap:               0.0
 (Enter /home/matma/Software/gaussian16.B01_files/AVX2/tar//g16/l301.exe)
 Standard basis: 6-311+G(d,p) (5D, 7F)
 Ernie: Thresh=  0.10000D-02 Tol=  0.10000D-05 Strict=F.
 There are   348 symmetry adapted cartesian basis functions of A   symmetry.
 There are   336 symmetry adapted basis functions of A   symmetry.
   336 basis functions,   528 primitive gaussians,   348 cartesian basis functions
    48 alpha electrons       48 beta electrons
       nuclear repulsion energy       828.2150604147 Hartrees.
 IExCor= 1009 DFT=T Ex+Corr=PBE1PBE ExCW=0 ScaHFX=  0.250000
 ScaDFX=  0.750000  0.750000  1.000000  1.000000 ScalE2=  1.000000  1.000000
 IRadAn=  99590 IRanWt=     -1 IRanGd=            0 ICorTp=0 IEmpDi=131
 NAtoms=   24 NActive=   24 NUniq=   24 SFac= 1.00D+00 NAtFMM=   60 NAOKFM=F Big=F
 Integral buffers will be    131072 words long.
 Raffenetti 2 integral format.
 Two-electron integral symmetry is turned on.
 R6Disp:  Grimme-D3 Dispersion energy=       -0.0157196038 Hartrees.
 Nuclear repulsion after empirical dispersion term =      828.1993408109 Hartrees.
 Leave Link  301 at Fri Nov  1 11:04:20 2024, MaxMem=  4294967296 cpu:               0.7 elap:               0.0
 (Enter /home/matma/Software/gaussian16.B01_files/AVX2/tar//g16/l302.exe)
 NPDir=0 NMtPBC=     1 NCelOv=     1 NCel=       1 NClECP=     1 NCelD=      1
         NCelK=      1 NCelE2=     1 NClLst=     1 CellRange=     0.0.
 One-electron integrals computed using PRISM.
 One-electron integral symmetry used in STVInt
 NBasis=   336 RedAO= T EigKep=  7.75D-06  NBF=   336
 NBsUse=   336 1.00D-06 EigRej= -1.00D+00 NBFU=   336
 Precomputing XC quadrature grid using
 IXCGrd= 4 IRadAn=       99590 IRanWt=          -1 IRanGd=           0 AccXCQ= 0.00D+00.
 Generated NRdTot=       0 NPtTot=           0 NUsed=           0 NTot=          32
 NSgBfM=   348   348   348   348   348 MxSgAt=    24 MxSgA2=    24.
 Leave Link  302 at Fri Nov  1 11:04:20 2024, MaxMem=  4294967296 cpu:               5.2 elap:               0.2
 (Enter /home/matma/Software/gaussian16.B01_files/AVX2/tar//g16/l303.exe)
 DipDrv:  MaxL=1.
 Leave Link  303 at Fri Nov  1 11:04:20 2024, MaxMem=  4294967296 cpu:               0.7 elap:               0.0
 (Enter /home/matma/Software/gaussian16.B01_files/AVX2/tar//g16/l401.exe)
 Initial guess from the checkpoint file:  "input.chk"
 B after Tr=    -0.000000   -0.000000   -0.000000
         Rot=    1.000000   -0.000037    0.000012   -0.000266 Ang=  -0.03 deg.
 Guess basis will be translated and rotated to current coordinates.
 JPrj=2 DoOrth=T DoCkMO=T.
 Leave Link  401 at Fri Nov  1 11:04:20 2024, MaxMem=  4294967296 cpu:               2.9 elap:               0.1
 (Enter /home/matma/Software/gaussian16.B01_files/AVX2/tar//g16/l502.exe)
 Integral symmetry usage will be decided dynamically.
 Closed shell SCF:
 Using DIIS extrapolation, IDIIS=  1040.
 NGot=  4294967296 LenX=  4294711890 LenY=  4294590345
 Requested convergence on RMS density matrix=1.00D-08 within 128 cycles.
 Requested convergence on MAX density matrix=1.00D-06.
 Requested convergence on             energy=1.00D-06.
 No special actions if energy rises.
 Fock matrices will be formed incrementally for  20 cycles.

 Cycle   1  Pass 1  IDiag  1:
 FoFJK:  IHMeth= 1 ICntrl=       0 DoSepK=F KAlg= 0 I1Cent=           0 FoldK=F
 IRaf= 920000000 NMat=       1 IRICut=       1 DoRegI=T DoRafI=F ISym2E= 0 IDoP0=0 IntGTp=1.
 FoFCou: FMM=F IPFlag=           0 FMFlag=      100000 FMFlg1=           0
         NFxFlg=           0 DoJE=F BraDBF=F KetDBF=F FulRan=T
         wScrn=  0.000000 ICntrl=         0 IOpCl=  0 I1Cent=           0 NGrid=           0
         NMat0=    1 NMatS0=      1 NMatT0=    0 NMatD0=    1 NMtDS0=    0 NMtDT0=    0
 Symmetry not used in FoFCou.
 E= -686.661768603130    
 DIIS: error= 2.23D-04 at cycle   1 NSaved=   1.
 NSaved= 1 IEnMin= 1 EnMin= -686.661768603130     IErMin= 1 ErrMin= 2.23D-04
 ErrMax= 2.23D-04  0.00D+00 EMaxC= 1.00D-01 BMatC= 4.44D-05 BMatP= 4.44D-05
 IDIUse=3 WtCom= 9.98D-01 WtEn= 2.23D-03
 Coeff-Com:  0.100D+01
 Coeff-En:   0.100D+01
 Coeff:      0.100D+01
 Gap=     0.605 Goal=   None    Shift=    0.000
 RMSDP=1.21D-04 MaxDP=8.89D-03              OVMax= 2.87D-03

 Cycle   2  Pass 1  IDiag  1:
 RMSU=  1.18D-04    CP:  1.00D+00
 E= -686.661823464203     Delta-E=       -0.000054861073 Rises=F Damp=F
 DIIS: error= 3.27D-05 at cycle   2 NSaved=   2.
 NSaved= 2 IEnMin= 2 EnMin= -686.661823464203     IErMin= 2 ErrMin= 3.27D-05
 ErrMax= 3.27D-05  0.00D+00 EMaxC= 1.00D-01 BMatC= 6.77D-07 BMatP= 4.44D-05
 IDIUse=1 WtCom= 1.00D+00 WtEn= 0.00D+00
 Coeff-Com: -0.628D-01 0.106D+01
 Coeff:     -0.628D-01 0.106D+01
 Gap=     0.278 Goal=   None    Shift=    0.000
 RMSDP=1.13D-05 MaxDP=7.88D-04 DE=-5.49D-05 OVMax= 3.87D-04

 Cycle   3  Pass 1  IDiag  1:
 RMSU=  1.10D-05    CP:  1.00D+00  1.01D+00
 E= -686.661824040889     Delta-E=       -0.000000576686 Rises=F Damp=F
 DIIS: error= 2.04D-05 at cycle   3 NSaved=   3.
 NSaved= 3 IEnMin= 3 EnMin= -686.661824040889     IErMin= 3 ErrMin= 2.04D-05
 ErrMax= 2.04D-05  0.00D+00 EMaxC= 1.00D-01 BMatC= 2.90D-07 BMatP= 6.77D-07
 IDIUse=1 WtCom= 1.00D+00 WtEn= 0.00D+00
 Coeff-Com: -0.314D-01 0.440D+00 0.592D+00
 Coeff:     -0.314D-01 0.440D+00 0.592D+00
 Gap=     0.278 Goal=   None    Shift=    0.000
 RMSDP=4.23D-06 MaxDP=3.65D-04 DE=-5.77D-07 OVMax= 1.02D-04

 Cycle   4  Pass 1  IDiag  1:
 RMSU=  3.56D-06    CP:  1.00D+00  1.02D+00  8.14D-01
 E= -686.661824199987     Delta-E=       -0.000000159098 Rises=F Damp=F
 DIIS: error= 8.80D-06 at cycle   4 NSaved=   4.
 NSaved= 4 IEnMin= 4 EnMin= -686.661824199987     IErMin= 4 ErrMin= 8.80D-06
 ErrMax= 8.80D-06  0.00D+00 EMaxC= 1.00D-01 BMatC= 6.56D-08 BMatP= 2.90D-07
 IDIUse=1 WtCom= 1.00D+00 WtEn= 0.00D+00
 Coeff-Com: -0.659D-02 0.793D-01 0.331D+00 0.596D+00
 Coeff:     -0.659D-02 0.793D-01 0.331D+00 0.596D+00
 Gap=     0.278 Goal=   None    Shift=    0.000
 RMSDP=1.75D-06 MaxDP=1.48D-04 DE=-1.59D-07 OVMax= 4.19D-05

 Cycle   5  Pass 1  IDiag  1:
 RMSU=  1.19D-06    CP:  1.00D+00  1.02D+00  7.98D-01  6.81D-01
 E= -686.661824244738     Delta-E=       -0.000000044751 Rises=F Damp=F
 DIIS: error= 1.00D-06 at cycle   5 NSaved=   5.
 NSaved= 5 IEnMin= 5 EnMin= -686.661824244738     IErMin= 5 ErrMin= 1.00D-06
 ErrMax= 1.00D-06  0.00D+00 EMaxC= 1.00D-01 BMatC= 1.08D-09 BMatP= 6.56D-08
 IDIUse=1 WtCom= 1.00D+00 WtEn= 0.00D+00
 Coeff-Com: -0.252D-03-0.469D-02 0.696D-01 0.185D+00 0.751D+00
 Coeff:     -0.252D-03-0.469D-02 0.696D-01 0.185D+00 0.751D+00
 Gap=     0.278 Goal=   None    Shift=    0.000
 RMSDP=5.56D-07 MaxDP=4.97D-05 DE=-4.48D-08 OVMax= 8.93D-06

 Cycle   6  Pass 1  IDiag  1:
 RMSU=  3.55D-07    CP:  1.00D+00  1.02D+00  8.16D-01  7.20D-01  8.87D-01
 E= -686.661824245403     Delta-E=       -0.000000000666 Rises=F Damp=F
 DIIS: error= 6.65D-07 at cycle   6 NSaved=   6.
 NSaved= 6 IEnMin= 6 EnMin= -686.661824245403     IErMin= 6 ErrMin= 6.65D-07
 ErrMax= 6.65D-07  0.00D+00 EMaxC= 1.00D-01 BMatC= 3.48D-10 BMatP= 1.08D-09
 IDIUse=1 WtCom= 1.00D+00 WtEn= 0.00D+00
 Coeff-Com:  0.519D-03-0.116D-01 0.990D-02 0.533D-01 0.430D+00 0.518D+00
 Coeff:      0.519D-03-0.116D-01 0.990D-02 0.533D-01 0.430D+00 0.518D+00
 Gap=     0.278 Goal=   None    Shift=    0.000
 RMSDP=1.65D-07 MaxDP=1.76D-05 DE=-6.66D-10 OVMax= 2.46D-06

 Cycle   7  Pass 1  IDiag  1:
 RMSU=  9.49D-08    CP:  1.00D+00  1.02D+00  8.18D-01  7.19D-01  9.06D-01
                    CP:  6.89D-01
 E= -686.661824245673     Delta-E=       -0.000000000270 Rises=F Damp=F
 DIIS: error= 1.17D-07 at cycle   7 NSaved=   7.
 NSaved= 7 IEnMin= 7 EnMin= -686.661824245673     IErMin= 7 ErrMin= 1.17D-07
 ErrMax= 1.17D-07  0.00D+00 EMaxC= 1.00D-01 BMatC= 1.18D-11 BMatP= 3.48D-10
 IDIUse=1 WtCom= 1.00D+00 WtEn= 0.00D+00
 Coeff-Com:  0.271D-03-0.545D-02 0.912D-03 0.151D-01 0.160D+00 0.235D+00
 Coeff-Com:  0.594D+00
 Coeff:      0.271D-03-0.545D-02 0.912D-03 0.151D-01 0.160D+00 0.235D+00
 Coeff:      0.594D+00
 Gap=     0.278 Goal=   None    Shift=    0.000
 RMSDP=3.72D-08 MaxDP=3.98D-06 DE=-2.70D-10 OVMax= 5.63D-07

 Cycle   8  Pass 1  IDiag  1:
 RMSU=  3.38D-08    CP:  1.00D+00  1.02D+00  8.18D-01  7.19D-01  9.10D-01
                    CP:  6.77D-01  1.06D+00
 E= -686.661824245686     Delta-E=       -0.000000000013 Rises=F Damp=F
 DIIS: error= 4.77D-08 at cycle   8 NSaved=   8.
 NSaved= 8 IEnMin= 8 EnMin= -686.661824245686     IErMin= 8 ErrMin= 4.77D-08
 ErrMax= 4.77D-08  0.00D+00 EMaxC= 1.00D-01 BMatC= 1.84D-12 BMatP= 1.18D-11
 IDIUse=1 WtCom= 1.00D+00 WtEn= 0.00D+00
 Coeff-Com:  0.502D-04-0.774D-03-0.926D-03-0.866D-03 0.787D-02 0.283D-01
 Coeff-Com:  0.298D+00 0.668D+00
 Coeff:      0.502D-04-0.774D-03-0.926D-03-0.866D-03 0.787D-02 0.283D-01
 Coeff:      0.298D+00 0.668D+00
 Gap=     0.278 Goal=   None    Shift=    0.000
 RMSDP=1.28D-08 MaxDP=1.15D-06 DE=-1.30D-11 OVMax= 2.80D-07

 Cycle   9  Pass 1  IDiag  1:
 RMSU=  8.85D-09    CP:  1.00D+00  1.02D+00  8.18D-01  7.20D-01  9.11D-01
                    CP:  6.84D-01  1.13D+00  9.75D-01
 E= -686.661824245686     Delta-E=        0.000000000000 Rises=F Damp=F
 DIIS: error= 8.42D-09 at cycle   9 NSaved=   9.
 NSaved= 9 IEnMin= 8 EnMin= -686.661824245686     IErMin= 9 ErrMin= 8.42D-09
 ErrMax= 8.42D-09  0.00D+00 EMaxC= 1.00D-01 BMatC= 7.66D-14 BMatP= 1.84D-12
 IDIUse=1 WtCom= 1.00D+00 WtEn= 0.00D+00
 Coeff-Com:  0.746D-06 0.823D-04-0.363D-03-0.120D-02-0.768D-02-0.537D-02
 Coeff-Com:  0.657D-01 0.248D+00 0.701D+00
 Coeff:      0.746D-06 0.823D-04-0.363D-03-0.120D-02-0.768D-02-0.537D-02
 Coeff:      0.657D-01 0.248D+00 0.701D+00
 Gap=     0.278 Goal=   None    Shift=    0.000
 RMSDP=4.01D-09 MaxDP=2.11D-07 DE= 4.55D-13 OVMax= 6.43D-08

 SCF Done:  E(RPBE1PBE) =  -686.661824246     A.U. after    9 cycles
            NFock=  9  Conv=0.40D-08     -V/T= 2.0032
 KE= 6.844627607656D+02 PE=-3.269692726705D+03 EE= 1.070368800883D+03
 Leave Link  502 at Fri Nov  1 11:04:33 2024, MaxMem=  4294967296 cpu:             366.0 elap:              13.1
 (Enter /home/matma/Software/gaussian16.B01_files/AVX2/tar//g16/l701.exe)
 ... and contract with generalized density number  0.
 Compute integral first derivatives.
 R6Disp: Adding Grimme-D3 dispersion energy 1st derivatives to the gradient.
 Leave Link  701 at Fri Nov  1 11:04:33 2024, MaxMem=  4294967296 cpu:               4.0 elap:               0.2
 (Enter /home/matma/Software/gaussian16.B01_files/AVX2/tar//g16/l702.exe)
 L702 exits ... SP integral derivatives will be done elsewhere.
 Leave Link  702 at Fri Nov  1 11:04:34 2024, MaxMem=  4294967296 cpu:               0.3 elap:               0.0
 (Enter /home/matma/Software/gaussian16.B01_files/AVX2/tar//g16/l703.exe)
 Integral derivatives from FoFJK, PRISM(SPDF).
 Compute integral first derivatives, UseDBF=F ICtDFT=           0.
 Calling FoFJK, ICntrl=      2127 FMM=F ISym2X=0 I1Cent= 0 IOpClX= 0 NMat=1 NMatS=1 NMatT=0.
 FoFJK:  IHMeth= 1 ICntrl=    2127 DoSepK=F KAlg= 0 I1Cent=           0 FoldK=F
 IRaf=         0 NMat=       1 IRICut=       1 DoRegI=T DoRafI=F ISym2E= 0 IDoP0=0 IntGTp=1.
 FoFCou: FMM=F IPFlag=           0 FMFlag=      100000 FMFlg1=         800
         NFxFlg=           0 DoJE=F BraDBF=F KetDBF=F FulRan=T
         wScrn=  0.000000 ICntrl=      2127 IOpCl=  0 I1Cent=           0 NGrid=           0
         NMat0=    1 NMatS0=      1 NMatT0=    0 NMatD0=    1 NMtDS0=    0 NMtDT0=    0
 Symmetry not used in FoFCou.
 Leave Link  703 at Fri Nov  1 11:04:38 2024, MaxMem=  4294967296 cpu:             123.2 elap:               4.4
 (Enter /home/matma/Software/gaussian16.B01_files/AVX2/tar//g16/l716.exe)
 Dipole        = 3.26606071D-01 9.48099779D-01-8.26718172D-02
 ***** Axes restored to original set *****
 -------------------------------------------------------------------
 Center     Atomic                   Forces (Hartrees/Bohr)
 Number     Number              X              Y              Z
 -------------------------------------------------------------------
      1        8          -0.000021032   -0.000001930   -0.000003519
      2        8           0.000003902   -0.000001294   -0.000001215
      3        8          -0.000005916   -0.000006343   -0.000028852
      4        8          -0.000000086    0.000005179    0.000030374
      5        8           0.000006198   -0.000001284   -0.000004333
      6        8          -0.000000552   -0.000003419    0.000001205
      7        6          -0.000005967   -0.000002836   -0.000013556
      8        6           0.000011171    0.000003330    0.000047069
      9        6          -0.000001194    0.000004227    0.000004916
     10        6          -0.000001838   -0.000012487   -0.000018242
     11        6           0.000006291    0.000008620    0.000001759
     12        6          -0.000002675    0.000000294   -0.000001856
     13        1           0.000001129    0.000000191   -0.000002399
     14        1          -0.000012470   -0.000016179   -0.000008140
     15        1           0.000000557    0.000001623   -0.000000230
     16        1           0.000001476    0.000000338   -0.000004096
     17        1           0.000003323    0.000008445    0.000005930
     18        1           0.000000965   -0.000003080   -0.000001493
     19        1           0.000000786   -0.000001463   -0.000001812
     20        1          -0.000001022    0.000000810   -0.000001257
     21        1          -0.000000482   -0.000000067    0.000009325
     22        1           0.000019907    0.000020146   -0.000011160
     23        1          -0.000003069   -0.000001015    0.000002796
     24        1           0.000000599   -0.000001807   -0.000001215
 -------------------------------------------------------------------
 Cartesian Forces:  Max     0.000047069 RMS     0.000010095
 Leave Link  716 at Fri Nov  1 11:04:38 2024, MaxMem=  4294967296 cpu:               0.3 elap:               0.0
 (Enter /home/matma/Software/gaussian16.B01_files/AVX2/tar//g16/l103.exe)

 GradGradGradGradGradGradGradGradGradGradGradGradGradGradGradGradGradGrad
 Berny optimization.
 Using GEDIIS/GDIIS optimizer.
 FormGI is forming the generalized inverse of G from B-inverse, IUseBI=4.
 Internal  Forces:  Max     0.000053017 RMS     0.000008670
 Search for a local minimum.
 Step number  13 out of a maximum of  142
 All quantities printed in internal units (Hartrees-Bohrs-Radians)
 RMS Force = .86704D-05 SwitMx=.10000D-02 MixMth= 2
 Mixed Optimization -- En-DIIS/RFO-DIIS
 Swapping is turned off.
 Update second derivatives using D2CorX and points    7    9   10   11   12
                                                     13
 DE= -4.06D-06 DEPred=-3.77D-06 R= 1.08D+00
 TightC=F SS=  1.41D+00  RLast= 3.56D-02 DXNew= 2.0182D+00 1.0675D-01
 Trust test= 1.08D+00 RLast= 3.56D-02 DXMaxT set to 1.20D+00
 ITU=  1  1  1  0  1 -1  1  0  1  0  1  1  0
     Eigenvalues ---    0.00252   0.00308   0.00338   0.00450   0.00493
     Eigenvalues ---    0.00620   0.00778   0.00844   0.00907   0.02361
     Eigenvalues ---    0.02433   0.03671   0.04160   0.04655   0.04898
     Eigenvalues ---    0.05094   0.05278   0.05660   0.05830   0.05992
     Eigenvalues ---    0.06274   0.06567   0.06770   0.06995   0.07054
     Eigenvalues ---    0.08495   0.09453   0.09718   0.10843   0.12204
     Eigenvalues ---    0.14051   0.14595   0.15807   0.15981   0.16857
     Eigenvalues ---    0.17099   0.17591   0.18316   0.19562   0.20483
     Eigenvalues ---    0.20628   0.23885   0.24346   0.25036   0.26531
     Eigenvalues ---    0.28484   0.29039   0.29884   0.31324   0.31574
     Eigenvalues ---    0.32855   0.33050   0.33127   0.33343   0.33850
     Eigenvalues ---    0.34316   0.36483   0.37140   0.39136   0.39792
     Eigenvalues ---    0.41030   0.49723   0.49793   0.49863   0.49935
     Eigenvalues ---    0.50209
 En-DIIS/RFO-DIIS/Sim-DIIS IScMMF=       -3 using points:    13   12   11   10    9
 RFO step:  Lambda=-1.08913590D-07.
 NNeg= 0 NGDIIS= 5 SimSw=  2.50D-01 Rises=F DC= -4.06D-06 SmlDif=  1.00D-05
 NRisDI= 0 DoIntr=F SqrtH=F CThrHd= 10.0 CDAdj=  3.0
 RMS Error=  0.2878425508D-03 NUsed= 5 OKEnD=F EnDIS=F
 InvSVX:  RCond= 6.81D-07 Info=           0 Equed=N FErr=  8.55D-14 BErr=  7.21D-17
 DidBck=F Rises=F RFO-DIIS coefs:    1.09987   -0.12513   -0.00200    0.00213    0.02513
 Iteration  1 RMS(Cart)=  0.00035162 RMS(Int)=  0.00000028
 Iteration  2 RMS(Cart)=  0.00000021 RMS(Int)=  0.00000018
 ITry= 1 IFail=0 DXMaxC= 1.65D-03 DCOld= 1.00D+10 DXMaxT= 1.20D+00 DXLimC= 3.00D+00 Rises=F
 Variable       Old X    -DE/DX   Delta X   Delta X   Delta X     New X
                                 (Linear)    (Quad)   (Total)
    R1        2.67767  -0.00001   0.00001  -0.00002  -0.00002   2.67765
    R2        2.68600   0.00002   0.00006  -0.00001   0.00004   2.68604
    R3        2.67773   0.00000  -0.00001   0.00001   0.00000   2.67773
    R4        1.81850  -0.00000   0.00000   0.00000   0.00000   1.81851
    R5        2.66574  -0.00001   0.00000  -0.00006  -0.00005   2.66569
    R6        1.81805  -0.00000   0.00002  -0.00001   0.00001   1.81806
    R7        2.65118   0.00002   0.00017  -0.00020  -0.00002   2.65116
    R8        1.81826  -0.00001  -0.00002  -0.00001  -0.00003   1.81823
    R9        2.59606  -0.00000  -0.00003   0.00005   0.00001   2.59607
   R10        1.81714   0.00000   0.00000   0.00000   0.00000   1.81714
   R11        2.65576  -0.00000  -0.00001  -0.00001  -0.00001   2.65574
   R12        1.81827   0.00000   0.00000  -0.00000   0.00000   1.81828
   R13        2.87097   0.00000   0.00000   0.00001   0.00001   2.87098
   R14        2.88165   0.00001   0.00002  -0.00002  -0.00001   2.88164
   R15        2.06981  -0.00000  -0.00001   0.00001   0.00000   2.06982
   R16        2.86961   0.00003   0.00006  -0.00007  -0.00000   2.86961
   R17        2.08925   0.00001  -0.00002   0.00005   0.00004   2.08929
   R18        2.86159  -0.00000   0.00000   0.00000   0.00001   2.86160
   R19        2.09020  -0.00000   0.00000  -0.00000  -0.00000   2.09020
   R20        2.88468   0.00001   0.00003   0.00004   0.00007   2.88475
   R21        2.08672  -0.00000   0.00002  -0.00003  -0.00001   2.08670
   R22        2.07703  -0.00000  -0.00001  -0.00001  -0.00002   2.07702
   R23        2.07959  -0.00000  -0.00000   0.00000   0.00000   2.07959
   R24        2.06333  -0.00000   0.00000  -0.00000  -0.00000   2.06333
    A1        1.99472   0.00001   0.00010  -0.00001   0.00009   1.99482
    A2        1.89514   0.00000   0.00003  -0.00002   0.00001   1.89515
    A3        1.88164   0.00001  -0.00003  -0.00001  -0.00004   1.88160
    A4        1.86842   0.00005   0.00002   0.00032   0.00034   1.86877
    A5        1.90081  -0.00000  -0.00003   0.00000  -0.00002   1.90079
    A6        1.86618  -0.00000  -0.00001   0.00000  -0.00001   1.86618
    A7        1.92990  -0.00000  -0.00006   0.00003  -0.00003   1.92987
    A8        1.97422  -0.00000   0.00003   0.00000   0.00003   1.97425
    A9        1.84178   0.00000   0.00005  -0.00007  -0.00002   1.84176
   A10        1.90749   0.00000  -0.00008   0.00008   0.00000   1.90749
   A11        1.90079  -0.00000   0.00009  -0.00005   0.00003   1.90082
   A12        1.90755   0.00000  -0.00002   0.00000  -0.00001   1.90754
   A13        1.95792   0.00000   0.00007  -0.00005   0.00002   1.95794
   A14        1.87214   0.00001   0.00003   0.00015   0.00018   1.87232
   A15        1.91692  -0.00001  -0.00006  -0.00002  -0.00008   1.91684
   A16        1.94835  -0.00000  -0.00005  -0.00009  -0.00013   1.94822
   A17        1.89080  -0.00001  -0.00020   0.00002  -0.00018   1.89062
   A18        1.87605   0.00001   0.00022  -0.00002   0.00020   1.87625
   A19        1.91601  -0.00000   0.00003  -0.00002   0.00001   1.91602
   A20        1.85348   0.00000  -0.00002   0.00001  -0.00001   1.85347
   A21        1.90676   0.00000   0.00000  -0.00000   0.00000   1.90677
   A22        1.98328  -0.00000  -0.00001  -0.00001  -0.00002   1.98325
   A23        1.90829   0.00000  -0.00000   0.00001   0.00000   1.90830
   A24        1.89432   0.00000   0.00000   0.00001   0.00002   1.89433
   A25        1.94272   0.00004   0.00015   0.00017   0.00031   1.94304
   A26        1.90621  -0.00003  -0.00029   0.00008  -0.00021   1.90600
   A27        1.93891  -0.00001   0.00015  -0.00023  -0.00007   1.93884
   A28        1.91246  -0.00000   0.00008  -0.00003   0.00006   1.91252
   A29        1.88560  -0.00001   0.00000  -0.00009  -0.00008   1.88551
   A30        1.87662   0.00001  -0.00010   0.00009  -0.00001   1.87661
   A31        1.89413   0.00000  -0.00007   0.00004  -0.00003   1.89410
   A32        1.88543   0.00000   0.00011   0.00004   0.00014   1.88557
   A33        1.91714   0.00000  -0.00001   0.00004   0.00004   1.91718
   A34        1.98622  -0.00000  -0.00004  -0.00003  -0.00006   1.98615
   A35        1.85733  -0.00000   0.00007  -0.00014  -0.00007   1.85726
   A36        1.92303   0.00000  -0.00006   0.00005  -0.00001   1.92302
   A37        1.94455  -0.00000  -0.00002   0.00002   0.00000   1.94456
   A38        1.94735   0.00000  -0.00001   0.00002   0.00001   1.94736
   A39        1.87701   0.00000   0.00000   0.00000   0.00001   1.87702
   A40        1.89234  -0.00000   0.00000  -0.00002  -0.00002   1.89232
   A41        1.91561   0.00000   0.00002  -0.00001   0.00000   1.91561
   A42        1.88607   0.00000   0.00001  -0.00001  -0.00000   1.88607
    D1        1.09959  -0.00000  -0.00013  -0.00010  -0.00023   1.09936
    D2       -3.03273  -0.00000  -0.00014  -0.00012  -0.00026  -3.03299
    D3       -0.99284  -0.00000  -0.00015  -0.00010  -0.00024  -0.99309
    D4        3.00970   0.00001   0.00045  -0.00000   0.00044   3.01015
    D5       -1.11233   0.00000   0.00042   0.00002   0.00044  -1.11189
    D6        0.98573   0.00001   0.00041   0.00012   0.00053   0.98626
    D7       -1.21878  -0.00000  -0.00029   0.00025  -0.00004  -1.21881
    D8        0.92710  -0.00000  -0.00041   0.00037  -0.00004   0.92707
    D9        3.01166  -0.00000  -0.00038   0.00033  -0.00005   3.01161
   D10        0.85197  -0.00001  -0.00139  -0.00023  -0.00162   0.85035
   D11        2.99750  -0.00001  -0.00139  -0.00026  -0.00165   2.99585
   D12       -1.25187   0.00001  -0.00115  -0.00021  -0.00135  -1.25322
   D13       -0.85402  -0.00000  -0.00053   0.00020  -0.00033  -0.85435
   D14       -2.96798  -0.00001  -0.00054   0.00008  -0.00046  -2.96844
   D15        1.24809   0.00001  -0.00032   0.00005  -0.00027   1.24782
   D16        1.28033  -0.00000  -0.00037   0.00002  -0.00035   1.27998
   D17       -0.81931  -0.00000  -0.00043  -0.00004  -0.00047  -0.81978
   D18       -2.94054   0.00000  -0.00038   0.00001  -0.00036  -2.94090
   D19       -0.93713   0.00000   0.00008   0.00007   0.00015  -0.93699
   D20        1.18067   0.00000   0.00005   0.00007   0.00013   1.18080
   D21       -3.03707   0.00000   0.00006   0.00007   0.00013  -3.03694
   D22       -1.08455   0.00001   0.00023   0.00025   0.00048  -1.08407
   D23        3.09673  -0.00000   0.00018   0.00015   0.00033   3.09705
   D24        1.03435  -0.00001   0.00007   0.00021   0.00027   1.03462
   D25        3.01444   0.00001   0.00029   0.00017   0.00046   3.01490
   D26        0.91252   0.00000   0.00024   0.00007   0.00031   0.91283
   D27       -1.14985  -0.00000   0.00013   0.00013   0.00026  -1.14960
   D28        0.93162   0.00001   0.00031   0.00015   0.00046   0.93208
   D29       -1.17029  -0.00000   0.00025   0.00005   0.00031  -1.16998
   D30        3.05052  -0.00001   0.00014   0.00011   0.00025   3.05077
   D31       -3.11000  -0.00000  -0.00009  -0.00010  -0.00019  -3.11019
   D32        1.10069  -0.00000  -0.00008  -0.00009  -0.00017   1.10052
   D33       -1.01850  -0.00000  -0.00007  -0.00011  -0.00017  -1.01867
   D34       -0.95175  -0.00000  -0.00021  -0.00000  -0.00021  -0.95196
   D35       -3.02424  -0.00000  -0.00019   0.00000  -0.00019  -3.02443
   D36        1.13975  -0.00000  -0.00018  -0.00001  -0.00019   1.13956
   D37        1.12688  -0.00000  -0.00016  -0.00002  -0.00017   1.12670
   D38       -0.94562  -0.00000  -0.00014  -0.00001  -0.00015  -0.94577
   D39       -3.06481  -0.00000  -0.00014  -0.00003  -0.00016  -3.06497
   D40        1.07761   0.00001   0.00011  -0.00023  -0.00012   1.07749
   D41       -3.09527  -0.00000  -0.00009  -0.00005  -0.00014  -3.09541
   D42       -1.05563  -0.00000  -0.00017   0.00000  -0.00017  -1.05580
   D43       -3.05414   0.00001   0.00019  -0.00025  -0.00005  -3.05420
   D44       -0.94384   0.00000  -0.00001  -0.00006  -0.00007  -0.94391
   D45        1.09580   0.00000  -0.00009  -0.00001  -0.00010   1.09570
   D46       -0.98296   0.00000   0.00006  -0.00028  -0.00022  -0.98318
   D47        1.12735  -0.00001  -0.00015  -0.00009  -0.00024   1.12710
   D48       -3.11620  -0.00001  -0.00023  -0.00004  -0.00027  -3.11647
   D49        1.08022   0.00000  -0.00008  -0.00000  -0.00008   1.08014
   D50       -1.06932   0.00000  -0.00005  -0.00003  -0.00007  -1.06939
   D51       -3.12590   0.00000  -0.00007   0.00001  -0.00006  -3.12596
   D52       -3.09496  -0.00000  -0.00006  -0.00002  -0.00008  -3.09504
   D53        1.03869  -0.00000  -0.00003  -0.00005  -0.00008   1.03861
   D54       -1.01789   0.00000  -0.00005  -0.00002  -0.00007  -1.01797
   D55       -0.96799  -0.00000  -0.00007  -0.00001  -0.00008  -0.96807
   D56       -3.11753  -0.00000  -0.00004  -0.00004  -0.00008  -3.11761
   D57        1.10908   0.00000  -0.00007  -0.00000  -0.00007   1.10901
   D58        3.12798   0.00002  -0.00027   0.00033   0.00006   3.12804
   D59       -1.05068   0.00002  -0.00031   0.00039   0.00008  -1.05060
   D60        1.03362   0.00002  -0.00029   0.00023  -0.00006   1.03356
   D61        0.99571  -0.00001  -0.00032   0.00009  -0.00023   0.99548
   D62        3.10023  -0.00001  -0.00036   0.00015  -0.00021   3.10002
   D63       -1.09864  -0.00001  -0.00034  -0.00001  -0.00035  -1.09900
   D64       -1.04958  -0.00000  -0.00031   0.00015  -0.00015  -1.04973
   D65        1.05495   0.00000  -0.00035   0.00022  -0.00013   1.05481
   D66        3.13925  -0.00001  -0.00033   0.00005  -0.00028   3.13898
         Item               Value     Threshold  Converged?
 Maximum Force            0.000053     0.000450     YES
 RMS     Force            0.000009     0.000300     YES
 Maximum Displacement     0.001646     0.001800     YES
 RMS     Displacement     0.000352     0.001200     YES
 Predicted change in Energy=-5.390463D-08
 Optimization completed.
    -- Stationary point found.
                           ----------------------------
                           !   Optimized Parameters   !
                           ! (Angstroms and Degrees)  !
 --------------------------                            --------------------------
 ! Name  Definition              Value          Derivative Info.                !
 --------------------------------------------------------------------------------
 ! R1    R(1,9)                  1.417          -DE/DX =    0.0                 !
 ! R2    R(1,11)                 1.4214         -DE/DX =    0.0                 !
 ! R3    R(2,7)                  1.417          -DE/DX =    0.0                 !
 ! R4    R(2,20)                 0.9623         -DE/DX =    0.0                 !
 ! R5    R(3,8)                  1.4106         -DE/DX =    0.0                 !
 ! R6    R(3,21)                 0.9621         -DE/DX =    0.0                 !
 ! R7    R(4,10)                 1.4029         -DE/DX =    0.0                 !
 ! R8    R(4,22)                 0.9622         -DE/DX =    0.0                 !
 ! R9    R(5,11)                 1.3738         -DE/DX =    0.0                 !
 ! R10   R(5,23)                 0.9616         -DE/DX =    0.0                 !
 ! R11   R(6,12)                 1.4054         -DE/DX =    0.0                 !
 ! R12   R(6,24)                 0.9622         -DE/DX =    0.0                 !
 ! R13   R(7,8)                  1.5193         -DE/DX =    0.0                 !
 ! R14   R(7,9)                  1.5249         -DE/DX =    0.0                 !
 ! R15   R(7,13)                 1.0953         -DE/DX =    0.0                 !
 ! R16   R(8,10)                 1.5185         -DE/DX =    0.0                 !
 ! R17   R(8,14)                 1.1056         -DE/DX =    0.0                 !
 ! R18   R(9,12)                 1.5143         -DE/DX =    0.0                 !
 ! R19   R(9,15)                 1.1061         -DE/DX =    0.0                 !
 ! R20   R(10,11)                1.5265         -DE/DX =    0.0                 !
 ! R21   R(10,16)                1.1042         -DE/DX =    0.0                 !
 ! R22   R(11,17)                1.0991         -DE/DX =    0.0                 !
 ! R23   R(12,18)                1.1005         -DE/DX =    0.0                 !
 ! R24   R(12,19)                1.0919         -DE/DX =    0.0                 !
 ! A1    A(9,1,11)             114.2893         -DE/DX =    0.0                 !
 ! A2    A(7,2,20)             108.5835         -DE/DX =    0.0                 !
 ! A3    A(8,3,21)             107.8101         -DE/DX =    0.0                 !
 ! A4    A(10,4,22)            107.0528         -DE/DX =    0.0001              !
 ! A5    A(11,5,23)            108.9084         -DE/DX =    0.0                 !
 ! A6    A(12,6,24)            106.9244         -DE/DX =    0.0                 !
 ! A7    A(2,7,8)              110.5754         -DE/DX =    0.0                 !
 ! A8    A(2,7,9)              113.1147         -DE/DX =    0.0                 !
 ! A9    A(2,7,13)             105.526          -DE/DX =    0.0                 !
 ! A10   A(8,7,9)              109.2909         -DE/DX =    0.0                 !
 ! A11   A(8,7,13)             108.9071         -DE/DX =    0.0                 !
 ! A12   A(9,7,13)             109.2948         -DE/DX =    0.0                 !
 ! A13   A(3,8,7)              112.1804         -DE/DX =    0.0                 !
 ! A14   A(3,8,10)             107.2659         -DE/DX =    0.0                 !
 ! A15   A(3,8,14)             109.8316         -DE/DX =    0.0                 !
 ! A16   A(7,8,10)             111.6325         -DE/DX =    0.0                 !
 ! A17   A(7,8,14)             108.3346         -DE/DX =    0.0                 !
 ! A18   A(10,8,14)            107.4897         -DE/DX =    0.0                 !
 ! A19   A(1,9,7)              109.7791         -DE/DX =    0.0                 !
 ! A20   A(1,9,12)             106.1965         -DE/DX =    0.0                 !
 ! A21   A(1,9,15)             109.2495         -DE/DX =    0.0                 !
 ! A22   A(7,9,12)             113.6334         -DE/DX =    0.0                 !
 ! A23   A(7,9,15)             109.3372         -DE/DX =    0.0                 !
 ! A24   A(12,9,15)            108.5363         -DE/DX =    0.0                 !
 ! A25   A(4,10,8)             111.3099         -DE/DX =    0.0                 !
 ! A26   A(4,10,11)            109.218          -DE/DX =    0.0                 !
 ! A27   A(4,10,16)            111.0915         -DE/DX =    0.0                 !
 ! A28   A(8,10,11)            109.5759         -DE/DX =    0.0                 !
 ! A29   A(8,10,16)            108.0367         -DE/DX =    0.0                 !
 ! A30   A(11,10,16)           107.5222         -DE/DX =    0.0                 !
 ! A31   A(1,11,5)             108.5258         -DE/DX =    0.0                 !
 ! A32   A(1,11,10)            108.0272         -DE/DX =    0.0                 !
 ! A33   A(1,11,17)            109.8443         -DE/DX =    0.0                 !
 ! A34   A(5,11,10)            113.8018         -DE/DX =    0.0                 !
 ! A35   A(5,11,17)            106.4172         -DE/DX =    0.0                 !
 ! A36   A(10,11,17)           110.1818         -DE/DX =    0.0                 !
 ! A37   A(6,12,9)             111.4147         -DE/DX =    0.0                 !
 ! A38   A(6,12,18)            111.575          -DE/DX =    0.0                 !
 ! A39   A(6,12,19)            107.5449         -DE/DX =    0.0                 !
 ! A40   A(9,12,18)            108.4234         -DE/DX =    0.0                 !
 ! A41   A(9,12,19)            109.7561         -DE/DX =    0.0                 !
 ! A42   A(18,12,19)           108.0638         -DE/DX =    0.0                 !
 ! D1    D(11,1,9,7)            63.002          -DE/DX =    0.0                 !
 ! D2    D(11,1,9,12)         -173.7628         -DE/DX =    0.0                 !
 ! D3    D(11,1,9,15)          -56.8857         -DE/DX =    0.0                 !
 ! D4    D(9,1,11,5)           172.4434         -DE/DX =    0.0                 !
 ! D5    D(9,1,11,10)          -63.7316         -DE/DX =    0.0                 !
 ! D6    D(9,1,11,17)           56.4781         -DE/DX =    0.0                 !
 ! D7    D(20,2,7,8)           -69.8307         -DE/DX =    0.0                 !
 ! D8    D(20,2,7,9)            53.1191         -DE/DX =    0.0                 !
 ! D9    D(20,2,7,13)          172.5556         -DE/DX =    0.0                 !
 ! D10   D(21,3,8,7)            48.8142         -DE/DX =    0.0                 !
 ! D11   D(21,3,8,10)          171.7443         -DE/DX =    0.0                 !
 ! D12   D(21,3,8,14)          -71.7267         -DE/DX =    0.0                 !
 ! D13   D(22,4,10,8)          -48.9318         -DE/DX =    0.0                 !
 ! D14   D(22,4,10,11)        -170.0529         -DE/DX =    0.0                 !
 ! D15   D(22,4,10,16)          71.5104         -DE/DX =    0.0                 !
 ! D16   D(23,5,11,1)           73.3573         -DE/DX =    0.0                 !
 ! D17   D(23,5,11,10)         -46.9428         -DE/DX =    0.0                 !
 ! D18   D(23,5,11,17)        -168.4806         -DE/DX =    0.0                 !
 ! D19   D(24,6,12,9)          -53.6937         -DE/DX =    0.0                 !
 ! D20   D(24,6,12,18)          67.6474         -DE/DX =    0.0                 !
 ! D21   D(24,6,12,19)        -174.0113         -DE/DX =    0.0                 !
 ! D22   D(2,7,8,3)            -62.14           -DE/DX =    0.0                 !
 ! D23   D(2,7,8,10)           177.4293         -DE/DX =    0.0                 !
 ! D24   D(2,7,8,14)            59.2638         -DE/DX =    0.0                 !
 ! D25   D(9,7,8,3)            172.7144         -DE/DX =    0.0                 !
 ! D26   D(9,7,8,10)            52.2837         -DE/DX =    0.0                 !
 ! D27   D(9,7,8,14)           -65.8818         -DE/DX =    0.0                 !
 ! D28   D(13,7,8,3)            53.378          -DE/DX =    0.0                 !
 ! D29   D(13,7,8,10)          -67.0527         -DE/DX =    0.0                 !
 ! D30   D(13,7,8,14)          174.7819         -DE/DX =    0.0                 !
 ! D31   D(2,7,9,1)           -178.19           -DE/DX =    0.0                 !
 ! D32   D(2,7,9,12)            63.0648         -DE/DX =    0.0                 !
 ! D33   D(2,7,9,15)           -58.3557         -DE/DX =    0.0                 !
 ! D34   D(8,7,9,1)            -54.5311         -DE/DX =    0.0                 !
 ! D35   D(8,7,9,12)          -173.2764         -DE/DX =    0.0                 !
 ! D36   D(8,7,9,15)            65.3031         -DE/DX =    0.0                 !
 ! D37   D(13,7,9,1)            64.5652         -DE/DX =    0.0                 !
 ! D38   D(13,7,9,12)          -54.1801         -DE/DX =    0.0                 !
 ! D39   D(13,7,9,15)         -175.6006         -DE/DX =    0.0                 !
 ! D40   D(3,8,10,4)            61.7424         -DE/DX =    0.0                 !
 ! D41   D(3,8,10,11)         -177.3461         -DE/DX =    0.0                 !
 ! D42   D(3,8,10,16)          -60.4831         -DE/DX =    0.0                 !
 ! D43   D(7,8,10,4)          -174.9895         -DE/DX =    0.0                 !
 ! D44   D(7,8,10,11)          -54.078          -DE/DX =    0.0                 !
 ! D45   D(7,8,10,16)           62.7849         -DE/DX =    0.0                 !
 ! D46   D(14,8,10,4)          -56.3194         -DE/DX =    0.0                 !
 ! D47   D(14,8,10,11)          64.5921         -DE/DX =    0.0                 !
 ! D48   D(14,8,10,16)        -178.5449         -DE/DX =    0.0                 !
 ! D49   D(1,9,12,6)            61.892          -DE/DX =    0.0                 !
 ! D50   D(1,9,12,18)          -61.2673         -DE/DX =    0.0                 !
 ! D51   D(1,9,12,19)         -179.1009         -DE/DX =    0.0                 !
 ! D52   D(7,9,12,6)          -177.3281         -DE/DX =    0.0                 !
 ! D53   D(7,9,12,18)           59.5126         -DE/DX =    0.0                 !
 ! D54   D(7,9,12,19)          -58.321          -DE/DX =    0.0                 !
 ! D55   D(15,9,12,6)          -55.4617         -DE/DX =    0.0                 !
 ! D56   D(15,9,12,18)        -178.621          -DE/DX =    0.0                 !
 ! D57   D(15,9,12,19)          63.5454         -DE/DX =    0.0                 !
 ! D58   D(4,10,11,1)          179.2199         -DE/DX =    0.0                 !
 ! D59   D(4,10,11,5)          -60.1998         -DE/DX =    0.0                 !
 ! D60   D(4,10,11,17)          59.2222         -DE/DX =    0.0                 !
 ! D61   D(8,10,11,1)           57.05           -DE/DX =    0.0                 !
 ! D62   D(8,10,11,5)          177.6303         -DE/DX =    0.0                 !
 ! D63   D(8,10,11,17)         -62.9477         -DE/DX =    0.0                 !
 ! D64   D(16,10,11,1)         -60.1364         -DE/DX =    0.0                 !
 ! D65   D(16,10,11,5)          60.4439         -DE/DX =    0.0                 !
 ! D66   D(16,10,11,17)        179.8659         -DE/DX =    0.0                 !
 --------------------------------------------------------------------------------
 Lowest energy point so far.  Saving SCF results.
 Largest change from initial coordinates is atom   22       0.183 Angstoms.
 GradGradGradGradGradGradGradGradGradGradGradGradGradGradGradGradGradGrad

 Leave Link  103 at Fri Nov  1 11:04:38 2024, MaxMem=  4294967296 cpu:               0.6 elap:               0.0
 (Enter /home/matma/Software/gaussian16.B01_files/AVX2/tar//g16/l202.exe)
                          Input orientation:                          
 ---------------------------------------------------------------------
 Center     Atomic      Atomic             Coordinates (Angstroms)
 Number     Number       Type             X           Y           Z
 ---------------------------------------------------------------------
      1          8           0       -0.655667    1.140403    0.251261
      2          8           0       -0.858472   -2.485713   -0.311885
      3          8           0        1.955810   -1.989947    0.114818
      4          8           0        2.844212    0.601183   -0.468925
      5          8           0        0.987356    2.696460    0.085286
      6          8           0       -3.417900    0.961778   -0.054003
      7          6           0       -0.359810   -1.247073    0.162437
      8          6           0        1.051991   -1.009878   -0.346168
      9          6           0       -1.239100   -0.061558   -0.220622
     10          6           0        1.587040    0.340534    0.096614
     11          6           0        0.611551    1.438553   -0.319315
     12          6           0       -2.629497   -0.119025    0.376507
     13          1           0       -0.333048   -1.340232    1.253439
     14          1           0        1.028351   -1.011720   -1.451498
     15          1           0       -1.331034   -0.014472   -1.321877
     16          1           0        1.639346    0.342620    1.199614
     17          1           0        0.527951    1.476564   -1.414591
     18          1           0       -2.536544   -0.140712    1.472833
     19          1           0       -3.129065   -1.037161    0.060858
     20          1           0       -1.011196   -2.412316   -1.259160
     21          1           0        1.561440   -2.852672   -0.045685
     22          1           0        3.386926   -0.179693   -0.322351
     23          1           0        1.246171    2.661781    1.010740
     24          1           0       -2.925013    1.764195    0.143474
 ---------------------------------------------------------------------
                    Distance matrix (angstroms):
                    1          2          3          4          5
     1  O    0.000000
     2  O    3.675185   0.000000
     3  O    4.078912   2.889298   0.000000
     4  O    3.613665   4.823221   2.800709   0.000000
     5  O    2.269005   5.515410   4.785519   2.853988   0.000000
     6  O    2.784785   4.301438   6.133346   6.286194   4.736539
     7  C    2.407377   1.416995   2.432329   3.752389   4.168005
     8  C    2.810111   2.414361   1.410650   2.413015   3.731926
     9  C    1.416961   2.455552   3.746819   4.144190   3.557717
    10  C    2.386093   3.759665   2.359548   1.402944   2.431077
    11  C    1.421369   4.190572   3.708115   2.389215   1.373776
    12  C    2.344750   3.035066   4.959220   5.585243   4.592755
    13  H    2.694809   2.009586   2.637699   4.102512   4.404876
    14  H    3.219773   2.651693   2.066508   2.619973   4.014223
    15  H    2.065096   2.711168   4.095111   4.305721   3.834605
    16  H    2.608240   4.064873   2.591872   2.074267   2.684657
    17  H    2.070994   4.340250   4.049021   2.650593   1.987167
    18  H    2.582866   3.391191   5.044315   5.768307   4.732093
    19  H    3.300870   2.718976   5.173651   6.216501   5.557468
    20  H    3.876801   0.962311   3.296867   4.956795   5.648127
    21  H    4.576941   2.462011   0.962072   3.708605   5.580286
    22  H    4.291181   4.831278   2.348666   0.962180   3.767805
    23  H    2.551154   5.716254   4.790078   2.998201   0.961589
    24  H    2.355985   4.747595   6.157665   5.917058   4.022329
                    6          7          8          9         10
     6  O    0.000000
     7  C    3.778595   0.000000
     8  C    4.894151   1.519251   0.000000
     9  C    2.412913   1.524903   2.482775   0.000000
    10  C    5.045598   2.512977   1.518534   2.872174   0.000000
    11  C    4.066224   2.896242   2.487875   2.384320   1.526506
    12  C    1.405366   2.543580   3.856064   1.514289   4.250732
    13  H    4.065091   1.095299   2.141544   2.151462   2.801778
    14  H    5.061307   2.141767   1.105584   2.749399   2.130112
    15  H    2.629748   2.160039   2.760734   1.106088   3.263940
    16  H    5.246965   2.756716   2.136277   3.235101   1.104242
    17  H    4.205466   3.270066   2.756544   2.629420   2.167019
    18  H    2.079303   2.771163   4.116042   2.134811   4.373732
    19  H    2.022962   2.779057   4.200911   2.145461   4.913347
    20  H    4.316148   1.950137   2.656526   2.580032   4.020838
    21  H    6.272473   2.512461   1.935386   3.957770   3.196478
    22  H    6.905115   3.925856   2.478244   4.628652   1.919832
    23  H    5.077130   4.310213   3.919182   3.887082   2.517937
    24  H    0.962189   3.955801   4.873581   2.511622   4.731557
                   11         12         13         14         15
    11  C    0.000000
    12  C    3.662596   0.000000
    13  H    3.329785   2.744819   0.000000
    14  H    2.731190   4.185493   3.045982   0.000000
    15  H    2.624890   2.140431   3.063636   2.564761   0.000000
    16  H    2.136488   4.371915   2.593303   3.039070   3.912619
    17  H    1.099119   3.965276   3.974171   2.538369   2.384870
    18  H    3.951756   1.100473   2.518407   4.692424   3.046243
    19  H    4.501767   1.091869   3.054802   4.424023   2.488125
    20  H    4.283201   3.248613   2.814676   2.481615   2.419894
    21  H    4.403609   5.021456   2.750324   2.376888   4.248582
    22  H    3.212699   6.057180   4.203352   2.744106   4.825505
    23  H    1.915223   4.812062   4.309170   4.427717   4.386960
    24  H    3.581550   1.920457   4.193777   5.087113   2.802084
                   16         17         18         19         20
    16  H    0.000000
    17  H    3.058610   0.000000
    18  H    4.212637   4.510424   0.000000
    19  H    5.092966   4.676487   1.774366   0.000000
    20  H    4.545395   4.185274   3.866608   2.849363   0.000000
    21  H    3.430266   4.656638   5.143354   5.030732   2.878348
    22  H    2.375548   3.479930   6.189645   6.583331   5.020527
    23  H    2.359824   2.793352   4.730374   5.807508   5.999551
    24  H    4.895883   3.799112   2.355159   2.809993   4.803470
                   21         22         23         24
    21  H    0.000000
    22  H    3.248655   0.000000
    23  H    5.623577   3.799202   0.000000
    24  H    6.440458   6.620896   4.353916   0.000000
 Stoichiometry    C6H12O6
 Framework group  C1[X(C6H12O6)]
 Deg. of freedom    66
 Full point group                 C1      NOp   1
 RotChk:  IX=0 Diff= 1.79D-15
 Largest Abelian subgroup         C1      NOp   1
 Largest concise Abelian subgroup C1      NOp   1
                         Standard orientation:                         
 ---------------------------------------------------------------------
 Center     Atomic      Atomic             Coordinates (Angstroms)
 Number     Number       Type             X           Y           Z
 ---------------------------------------------------------------------
      1          8           0       -0.707894   -1.114013   -0.230432
      2          8           0       -0.729235    2.535819    0.199983
      3          8           0        2.037167    1.900961   -0.340404
      4          8           0        2.842840   -0.703554    0.300970
      5          8           0        0.874032   -2.733870   -0.082252
      6          8           0       -3.441741   -0.802546    0.198630
      7          6           0       -0.307332    1.259734   -0.248882
      8          6           0        1.116483    0.979393    0.200877
      9          6           0       -1.216060    0.129105    0.221459
     10          6           0        1.571521   -0.408721   -0.213882
     11          6           0        0.572113   -1.446542    0.290432
     12          6           0       -2.630470    0.225806   -0.310671
     13          1           0       -0.330351    1.311325   -1.342723
     14          1           0        1.147338    1.023037    1.305169
     15          1           0       -1.255623    0.126764    1.326837
     16          1           0        1.569373   -0.453786   -1.317202
     17          1           0        0.540955   -1.440411    1.389092
     18          1           0       -2.590722    0.202926   -1.410188
     19          1           0       -3.074636    1.176106   -0.007646
     20          1           0       -0.838146    2.504215    1.155588
     21          1           0        1.688004    2.785578   -0.195073
     22          1           0        3.410222    0.046678    0.098438
     23          1           0        1.088247   -2.744797   -1.019613
     24          1           0       -2.993537   -1.632665    0.009361
 ---------------------------------------------------------------------
 Rotational constants (GHZ):           1.1720955           0.7953931           0.4956715
 Leave Link  202 at Fri Nov  1 11:04:38 2024, MaxMem=  4294967296 cpu:               0.1 elap:               0.0
 (Enter /home/matma/Software/gaussian16.B01_files/AVX2/tar//g16/l601.exe)
 Copying SCF densities to generalized density rwf, IOpCl= 0 IROHF=0.

 **********************************************************************

            Population analysis using the SCF Density.

 **********************************************************************

 Orbital symmetries:
       Occupied  (A) (A) (A) (A) (A) (A) (A) (A) (A) (A) (A) (A)
                 (A) (A) (A) (A) (A) (A) (A) (A) (A) (A) (A) (A)
                 (A) (A) (A) (A) (A) (A) (A) (A) (A) (A) (A) (A)
                 (A) (A) (A) (A) (A) (A) (A) (A) (A) (A) (A) (A)
       Virtual   (A) (A) (A) (A) (A) (A) (A) (A) (A) (A) (A) (A)
                 (A) (A) (A) (A) (A) (A) (A) (A) (A) (A) (A) (A)
                 (A) (A) (A) (A) (A) (A) (A) (A) (A) (A) (A) (A)
                 (A) (A) (A) (A) (A) (A) (A) (A) (A) (A) (A) (A)
                 (A) (A) (A) (A) (A) (A) (A) (A) (A) (A) (A) (A)
                 (A) (A) (A) (A) (A) (A) (A) (A) (A) (A) (A) (A)
                 (A) (A) (A) (A) (A) (A) (A) (A) (A) (A) (A) (A)
                 (A) (A) (A) (A) (A) (A) (A) (A) (A) (A) (A) (A)
                 (A) (A) (A) (A) (A) (A) (A) (A) (A) (A) (A) (A)
                 (A) (A) (A) (A) (A) (A) (A) (A) (A) (A) (A) (A)
                 (A) (A) (A) (A) (A) (A) (A) (A) (A) (A) (A) (A)
                 (A) (A) (A) (A) (A) (A) (A) (A) (A) (A) (A) (A)
                 (A) (A) (A) (A) (A) (A) (A) (A) (A) (A) (A) (A)
                 (A) (A) (A) (A) (A) (A) (A) (A) (A) (A) (A) (A)
                 (A) (A) (A) (A) (A) (A) (A) (A) (A) (A) (A) (A)
                 (A) (A) (A) (A) (A) (A) (A) (A) (A) (A) (A) (A)
                 (A) (A) (A) (A) (A) (A) (A) (A) (A) (A) (A) (A)
                 (A) (A) (A) (A) (A) (A) (A) (A) (A) (A) (A) (A)
                 (A) (A) (A) (A) (A) (A) (A) (A) (A) (A) (A) (A)
                 (A) (A) (A) (A) (A) (A) (A) (A) (A) (A) (A) (A)
                 (A) (A) (A) (A) (A) (A) (A) (A) (A) (A) (A) (A)
                 (A) (A) (A) (A) (A) (A) (A) (A) (A) (A) (A) (A)
                 (A) (A) (A) (A) (A) (A) (A) (A) (A) (A) (A) (A)
                 (A) (A) (A) (A) (A) (A) (A) (A) (A) (A) (A) (A)
 The electronic state is 1-A.
 Alpha  occ. eigenvalues --  -19.24078 -19.23697 -19.23131 -19.22783 -19.21941
 Alpha  occ. eigenvalues --  -19.20848 -10.34021 -10.29957 -10.29781 -10.29773
 Alpha  occ. eigenvalues --  -10.29382 -10.27729  -1.13364  -1.10375  -1.08808
 Alpha  occ. eigenvalues --   -1.07341  -1.06648  -1.05566  -0.83340  -0.81340
 Alpha  occ. eigenvalues --   -0.72788  -0.69127  -0.65964  -0.64681  -0.59340
 Alpha  occ. eigenvalues --   -0.57877  -0.55800  -0.53835  -0.53561  -0.51942
 Alpha  occ. eigenvalues --   -0.50408  -0.49586  -0.47425  -0.45312  -0.44165
 Alpha  occ. eigenvalues --   -0.43472  -0.41267  -0.40349  -0.39239  -0.37994
 Alpha  occ. eigenvalues --   -0.36977  -0.36858  -0.34153  -0.32903  -0.31872
 Alpha  occ. eigenvalues --   -0.30587  -0.30129  -0.29007
 Alpha virt. eigenvalues --   -0.01158   0.00441   0.01363   0.02008   0.03252
 Alpha virt. eigenvalues --    0.04088   0.04515   0.05141   0.05558   0.06742
 Alpha virt. eigenvalues --    0.08248   0.08754   0.09334   0.09933   0.10071
 Alpha virt. eigenvalues --    0.10814   0.11165   0.12391   0.13224   0.13731
 Alpha virt. eigenvalues --    0.14365   0.14524   0.15560   0.15922   0.16259
 Alpha virt. eigenvalues --    0.16984   0.17425   0.18272   0.19062   0.19445
 Alpha virt. eigenvalues --    0.19790   0.20513   0.20897   0.21233   0.21815
 Alpha virt. eigenvalues --    0.22027   0.22753   0.23316   0.23748   0.24250
 Alpha virt. eigenvalues --    0.24619   0.24985   0.25695   0.26337   0.26970
 Alpha virt. eigenvalues --    0.27525   0.28503   0.28749   0.28924   0.29310
 Alpha virt. eigenvalues --    0.30040   0.30442   0.30847   0.31992   0.32170
 Alpha virt. eigenvalues --    0.32597   0.33290   0.33856   0.34219   0.34532
 Alpha virt. eigenvalues --    0.35020   0.35273   0.37003   0.37500   0.38187
 Alpha virt. eigenvalues --    0.39055   0.39366   0.40527   0.41187   0.42545
 Alpha virt. eigenvalues --    0.43440   0.46182   0.49359   0.50348   0.51125
 Alpha virt. eigenvalues --    0.53269   0.54506   0.55476   0.55901   0.56561
 Alpha virt. eigenvalues --    0.58247   0.58715   0.60439   0.63168   0.63622
 Alpha virt. eigenvalues --    0.64979   0.66142   0.66977   0.67808   0.68602
 Alpha virt. eigenvalues --    0.69381   0.70232   0.71963   0.72524   0.73665
 Alpha virt. eigenvalues --    0.74258   0.75536   0.76429   0.77198   0.79510
 Alpha virt. eigenvalues --    0.80794   0.87848   0.91316   0.94509   0.96748
 Alpha virt. eigenvalues --    0.97531   1.00316   1.02757   1.04126   1.07289
 Alpha virt. eigenvalues --    1.08043   1.10566   1.11146   1.12933   1.13911
 Alpha virt. eigenvalues --    1.15507   1.15907   1.16240   1.16917   1.17997
 Alpha virt. eigenvalues --    1.19754   1.20385   1.21460   1.23138   1.24099
 Alpha virt. eigenvalues --    1.25423   1.25912   1.27089   1.28680   1.32856
 Alpha virt. eigenvalues --    1.33736   1.38768   1.39087   1.41990   1.42536
 Alpha virt. eigenvalues --    1.43081   1.45947   1.46931   1.49108   1.49513
 Alpha virt. eigenvalues --    1.51524   1.52363   1.54493   1.54951   1.56697
 Alpha virt. eigenvalues --    1.57858   1.58803   1.58902   1.60531   1.61026
 Alpha virt. eigenvalues --    1.63095   1.64606   1.66073   1.66587   1.70373
 Alpha virt. eigenvalues --    1.71685   1.72327   1.73333   1.74502   1.76960
 Alpha virt. eigenvalues --    1.78737   1.80324   1.82415   1.83690   1.84853
 Alpha virt. eigenvalues --    1.85675   1.87509   1.90182   1.93022   1.94174
 Alpha virt. eigenvalues --    1.98209   1.98756   2.01531   2.06400   2.06701
 Alpha virt. eigenvalues --    2.08107   2.09974   2.11405   2.12089   2.13548
 Alpha virt. eigenvalues --    2.14757   2.15663   2.16749   2.17836   2.21512
 Alpha virt. eigenvalues --    2.21817   2.25326   2.27099   2.33332   2.34058
 Alpha virt. eigenvalues --    2.36148   2.48311   2.50011   2.51014   2.53232
 Alpha virt. eigenvalues --    2.55021   2.58714   2.60037   2.60689   2.65077
 Alpha virt. eigenvalues --    2.66357   2.69676   2.70182   2.72981   2.78574
 Alpha virt. eigenvalues --    2.82866   2.84186   2.85503   2.87747   2.90235
 Alpha virt. eigenvalues --    2.94611   2.95279   2.97715   2.99576   3.00967
 Alpha virt. eigenvalues --    3.01406   3.03688   3.06929   3.09425   3.09618
 Alpha virt. eigenvalues --    3.11465   3.13018   3.14667   3.16104   3.16298
 Alpha virt. eigenvalues --    3.17761   3.19033   3.20736   3.23036   3.27302
 Alpha virt. eigenvalues --    3.28633   3.31940   3.33235   3.35193   3.38627
 Alpha virt. eigenvalues --    3.39042   3.41361   3.47275   3.56580   3.60995
 Alpha virt. eigenvalues --    3.78641   3.81476   3.83098   3.88595   3.90581
 Alpha virt. eigenvalues --    3.92584   3.92973   3.97245   3.99639   4.01629
 Alpha virt. eigenvalues --    4.03337   4.07083   4.13410   4.18295   4.20366
 Alpha virt. eigenvalues --    4.27885   4.35425   4.36569   5.10973   5.11685
 Alpha virt. eigenvalues --    5.12338   5.14094   5.14490   5.17311   5.36753
 Alpha virt. eigenvalues --    5.41367   5.44721   5.45965   5.48350   5.49742
 Alpha virt. eigenvalues --    5.64693   5.68459   5.70129   5.71426   5.73763
 Alpha virt. eigenvalues --    5.85503  23.82699  23.86787  23.89379  23.92374
 Alpha virt. eigenvalues --   23.94794  23.98981  50.03048  50.04340  50.05506
 Alpha virt. eigenvalues --   50.07751  50.09761  50.11096
          Condensed to atoms (all electrons):
               1          2          3          4          5          6
     1  O    8.205884   0.009937  -0.009495   0.009241  -0.005016  -0.013085
     2  O    0.009937   8.044386  -0.005329  -0.000206   0.000612  -0.003174
     3  O   -0.009495  -0.005329   8.038142  -0.011585  -0.002329   0.000196
     4  O    0.009241  -0.000206  -0.011585   7.935003   0.025308   0.000035
     5  O   -0.005016   0.000612  -0.002329   0.025308   7.819684   0.000987
     6  O   -0.013085  -0.003174   0.000196   0.000035   0.000987   7.963299
     7  C   -0.172229   0.119332  -0.192674   0.008344   0.003284   0.053014
     8  C    0.040819  -0.276530   0.271073  -0.261908   0.012551  -0.004717
     9  C    0.252751   0.047823   0.067490   0.012359  -0.001341  -0.028427
    10  C   -0.061108   0.135383  -0.145811   0.544997   0.011716  -0.000694
    11  C   -0.014180  -0.008334   0.077940  -0.203008   0.151484   0.012015
    12  C   -0.068409  -0.010453  -0.012946  -0.000718  -0.012740   0.117969
    13  H    0.000134  -0.064721  -0.009717  -0.000629   0.000484  -0.000098
    14  H    0.001950  -0.017742  -0.058632  -0.010366  -0.000398   0.000202
    15  H   -0.047901  -0.005487  -0.001281  -0.000011   0.001830   0.000451
    16  H    0.005188  -0.000693  -0.012390  -0.064474  -0.010796   0.000070
    17  H   -0.038186   0.000873  -0.001346  -0.003607  -0.058154  -0.000360
    18  H   -0.021152  -0.006615  -0.000054   0.000002   0.000448  -0.041657
    19  H    0.016589   0.018809   0.000170  -0.000010   0.000022  -0.055309
    20  H    0.000469   0.233721  -0.001509   0.000021   0.000016  -0.000088
    21  H    0.000355   0.020907   0.238607   0.003393   0.000015  -0.000003
    22  H    0.000001  -0.000276   0.026012   0.231741  -0.001067   0.000002
    23  H   -0.007217  -0.000019   0.000147  -0.006396   0.274814  -0.000020
    24  H    0.029542   0.000218  -0.000045  -0.000042  -0.000506   0.261839
               7          8          9         10         11         12
     1  O   -0.172229   0.040819   0.252751  -0.061108  -0.014180  -0.068409
     2  O    0.119332  -0.276530   0.047823   0.135383  -0.008334  -0.010453
     3  O   -0.192674   0.271073   0.067490  -0.145811   0.077940  -0.012946
     4  O    0.008344  -0.261908   0.012359   0.544997  -0.203008  -0.000718
     5  O    0.003284   0.012551  -0.001341   0.011716   0.151484  -0.012740
     6  O    0.053014  -0.004717  -0.028427  -0.000694   0.012015   0.117969
     7  C   10.237967  -1.660513  -2.350604  -0.798913   0.339283   0.109103
     8  C   -1.660513   9.705350   0.464969  -1.973116  -0.081574  -0.503869
     9  C   -2.350604   0.464969   8.943958   0.262552  -0.420678  -1.121889
    10  C   -0.798913  -1.973116   0.262552   9.118368  -1.397509   0.345835
    11  C    0.339283  -0.081574  -0.420678  -1.397509   7.488247  -0.306663
    12  C    0.109103  -0.503869  -1.121889   0.345835  -0.306663   6.938097
    13  H    0.545810  -0.014162  -0.120193  -0.028235  -0.007125   0.003126
    14  H    0.038660   0.530392  -0.041854  -0.142073  -0.021461   0.007675
    15  H   -0.045783   0.003207   0.455815   0.001400  -0.022929  -0.053742
    16  H   -0.006293   0.060713  -0.023918   0.438259  -0.113716   0.007324
    17  H   -0.027629   0.009250  -0.005034  -0.061100   0.443942   0.013552
    18  H    0.000882   0.023729   0.164036  -0.014071   0.008450   0.180638
    19  H   -0.041863  -0.014086  -0.149185   0.008033   0.000027   0.564111
    20  H    0.131278   0.007449  -0.067651  -0.016940   0.010196  -0.021254
    21  H   -0.046081   0.032962   0.014371   0.014618  -0.004023   0.001380
    22  H    0.041843  -0.021200   0.007283  -0.052763   0.023144   0.000887
    23  H    0.001082   0.023445  -0.017049  -0.073929   0.079138   0.001736
    24  H    0.015553   0.000206  -0.057437   0.002696  -0.004694   0.035681
              13         14         15         16         17         18
     1  O    0.000134   0.001950  -0.047901   0.005188  -0.038186  -0.021152
     2  O   -0.064721  -0.017742  -0.005487  -0.000693   0.000873  -0.006615
     3  O   -0.009717  -0.058632  -0.001281  -0.012390  -0.001346  -0.000054
     4  O   -0.000629  -0.010366  -0.000011  -0.064474  -0.003607   0.000002
     5  O    0.000484  -0.000398   0.001830  -0.010796  -0.058154   0.000448
     6  O   -0.000098   0.000202   0.000451   0.000070  -0.000360  -0.041657
     7  C    0.545810   0.038660  -0.045783  -0.006293  -0.027629   0.000882
     8  C   -0.014162   0.530392   0.003207   0.060713   0.009250   0.023729
     9  C   -0.120193  -0.041854   0.455815  -0.023918  -0.005034   0.164036
    10  C   -0.028235  -0.142073   0.001400   0.438259  -0.061100  -0.014071
    11  C   -0.007125  -0.021461  -0.022929  -0.113716   0.443942   0.008450
    12  C    0.003126   0.007675  -0.053742   0.007324   0.013552   0.180638
    13  H    0.456889   0.003194   0.004383   0.001039   0.000034   0.003360
    14  H    0.003194   0.507717  -0.000405   0.005062   0.000636  -0.000025
    15  H    0.004383  -0.000405   0.508498  -0.000074   0.009036   0.007076
    16  H    0.001039   0.005062  -0.000074   0.516892   0.004871   0.000070
    17  H    0.000034   0.000636   0.009036   0.004871   0.512741  -0.000010
    18  H    0.003360  -0.000025   0.007076   0.000070  -0.000010   0.565409
    19  H   -0.000429  -0.000034  -0.007327   0.000002   0.000069  -0.039816
    20  H    0.005943   0.002584   0.001419  -0.000033  -0.000156   0.000201
    21  H   -0.001808  -0.005068   0.000013   0.000230  -0.000015  -0.000005
    22  H    0.000079   0.002322  -0.000071  -0.000914  -0.000236  -0.000002
    23  H    0.000027   0.000130  -0.000041   0.003709   0.007639  -0.000018
    24  H    0.000115  -0.000045   0.000454   0.000007   0.000524  -0.006044
              19         20         21         22         23         24
     1  O    0.016589   0.000469   0.000355   0.000001  -0.007217   0.029542
     2  O    0.018809   0.233721   0.020907  -0.000276  -0.000019   0.000218
     3  O    0.000170  -0.001509   0.238607   0.026012   0.000147  -0.000045
     4  O   -0.000010   0.000021   0.003393   0.231741  -0.006396  -0.000042
     5  O    0.000022   0.000016   0.000015  -0.001067   0.274814  -0.000506
     6  O   -0.055309  -0.000088  -0.000003   0.000002  -0.000020   0.261839
     7  C   -0.041863   0.131278  -0.046081   0.041843   0.001082   0.015553
     8  C   -0.014086   0.007449   0.032962  -0.021200   0.023445   0.000206
     9  C   -0.149185  -0.067651   0.014371   0.007283  -0.017049  -0.057437
    10  C    0.008033  -0.016940   0.014618  -0.052763  -0.073929   0.002696
    11  C    0.000027   0.010196  -0.004023   0.023144   0.079138  -0.004694
    12  C    0.564111  -0.021254   0.001380   0.000887   0.001736   0.035681
    13  H   -0.000429   0.005943  -0.001808   0.000079   0.000027   0.000115
    14  H   -0.000034   0.002584  -0.005068   0.002322   0.000130  -0.000045
    15  H   -0.007327   0.001419   0.000013  -0.000071  -0.000041   0.000454
    16  H    0.000002  -0.000033   0.000230  -0.000914   0.003709   0.000007
    17  H    0.000069  -0.000156  -0.000015  -0.000236   0.007639   0.000524
    18  H   -0.039816   0.000201  -0.000005  -0.000002  -0.000018  -0.006044
    19  H    0.509623  -0.001048  -0.000018  -0.000001   0.000002   0.006927
    20  H   -0.001048   0.474242  -0.002414  -0.000026  -0.000000  -0.000026
    21  H   -0.000018  -0.002414   0.465854  -0.000979  -0.000001  -0.000001
    22  H   -0.000001  -0.000026  -0.000979   0.487593   0.000829  -0.000000
    23  H    0.000002  -0.000000  -0.000001   0.000829   0.475719   0.000072
    24  H    0.006927  -0.000026  -0.000001  -0.000000   0.000072   0.464096
 Mulliken charges:
               1
     1  O   -0.114883
     2  O   -0.232423
     3  O   -0.254635
     4  O   -0.207482
     5  O   -0.210908
     6  O   -0.262448
     7  C   -0.302852
     8  C   -0.374440
     9  C   -0.288147
    10  C   -0.117597
    11  C   -0.027974
    12  C   -0.214430
    13  H    0.222501
    14  H    0.197579
    15  H    0.191469
    16  H    0.189863
    17  H    0.192666
    18  H    0.175169
    19  H    0.184742
    20  H    0.243605
    21  H    0.267713
    22  H    0.255798
    23  H    0.236200
    24  H    0.250911
 Sum of Mulliken charges =  -0.00000
 Mulliken charges with hydrogens summed into heavy atoms:
               1
     1  O   -0.114883
     2  O    0.011182
     3  O    0.013078
     4  O    0.048316
     5  O    0.025292
     6  O   -0.011537
     7  C   -0.080350
     8  C   -0.176861
     9  C   -0.096677
    10  C    0.072266
    11  C    0.164693
    12  C    0.145482
 Electronic spatial extent (au):  <R**2>=           2193.2765
 Charge=             -0.0000 electrons
 Dipole moment (field-independent basis, Debye):
    X=              0.8301    Y=              2.4098    Z=             -0.2101  Tot=              2.5575
 Quadrupole moment (field-independent basis, Debye-Ang):
   XX=            -84.7812   YY=            -75.1265   ZZ=            -66.7927
   XY=              1.9904   XZ=             -1.3048   YZ=              8.0531
 Traceless Quadrupole moment (field-independent basis, Debye-Ang):
   XX=             -9.2144   YY=              0.4403   ZZ=              8.7741
   XY=              1.9904   XZ=             -1.3048   YZ=              8.0531
 Octapole moment (field-independent basis, Debye-Ang**2):
  XXX=             46.6895  YYY=             11.2296  ZZZ=              0.2872  XYY=             -2.8332
  XXY=             15.2259  XXZ=            -12.5594  XZZ=              0.0781  YZZ=             -0.7587
  YYZ=             -1.4098  XYZ=              4.9062
 Hexadecapole moment (field-independent basis, Debye-Ang**3):
 XXXX=          -1693.0406 YYYY=          -1012.6662 ZZZZ=           -140.0229 XXXY=             -2.1701
 XXXZ=             15.4589 YYYX=             69.7611 YYYZ=             61.5137 ZZZX=             -5.4822
 ZZZY=             16.9340 XXYY=           -415.6560 XXZZ=           -283.0366 YYZZ=           -159.1308
 XXYZ=             28.1044 YYXZ=            -24.4216 ZZXY=            -14.3382
 N-N= 8.281993408109D+02 E-N=-3.269692725732D+03  KE= 6.844627607656D+02
 No NMR shielding tensors so no spin-rotation constants.
 Leave Link  601 at Fri Nov  1 11:04:38 2024, MaxMem=  4294967296 cpu:               3.1 elap:               0.1
 (Enter /home/matma/Software/gaussian16.B01_files/AVX2/tar//g16/l9999.exe)
 1\1\GINC-SHORTBREAD-02\FOpt\RPBE1PBE\6-311+G(d,p)\C6H12O6\EUGENE\01-No
 v-2024\0\\#P opt=calcfc freq pbe1pbe/6-311+g(d,p) EmpiricalDispersion=
 GD3 Int=(grid=99590)\\OPT+FREQ\\0,1\O,-0.6556665469,1.1404033747,0.251
 2609486\O,-0.8584724621,-2.4857132301,-0.3118852536\O,1.9558097536,-1.
 9899472935,0.1148177594\O,2.8442118556,0.6011831648,-0.4689250088\O,0.
 9873563194,2.6964602267,0.0852860073\O,-3.4178998564,0.9617778323,-0.0
 540025799\C,-0.3598097527,-1.2470730418,0.1624368211\C,1.0519914136,-1
 .0098776947,-0.3461683302\C,-1.2390996078,-0.0615581289,-0.2206220805\
 C,1.587040453,0.3405343608,0.0966136131\C,0.6115509924,1.4385532795,-0
 .3193152631\C,-2.6294967811,-0.1190252697,0.3765072714\H,-0.333047889,
 -1.340231732,1.2534385892\H,1.0283505353,-1.0117201235,-1.4514980512\H
 ,-1.3310340411,-0.0144719065,-1.3218766346\H,1.6393455742,0.3426197166
 ,1.1996143983\H,0.5279506741,1.4765636942,-1.4145909122\H,-2.536544039
 9,-0.1407122991,1.4728330777\H,-3.1290653837,-1.0371613473,0.060858320
 6\H,-1.0111958103,-2.4123158543,-1.2591602821\H,1.5614399086,-2.852671
 726,-0.0456853838\H,3.3869259239,-0.1796926668,-0.3223511304\H,1.24617
 1338,2.6617814697,1.0107401169\H,-2.9250125707,1.764195195,0.143473986
 9\\Version=ES64L-G16RevB.01\State=1-A\HF=-686.6618242\RMSD=4.013e-09\R
 MSF=1.010e-05\Dipole=0.2880153,-0.9635637,0.0314872\Quadrupole=-6.8196
 173,-0.0138057,6.833423,-0.945854,1.8332463,5.7374564\PG=C01 [X(C6H12O
 6)]\\@


 A true friend is someone who is there for
 you when he'd rather be anywhere else.
                               -- Len Wein
 Leave Link 9999 at Fri Nov  1 11:04:38 2024, MaxMem=  4294967296 cpu:               0.5 elap:               0.0
 Job cpu time:       0 days  3 hours 50 minutes 17.1 seconds.
 Elapsed time:       0 days  0 hours  8 minutes 16.6 seconds.
 File lengths (MBytes):  RWF=    256 Int=      0 D2E=      0 Chk=     11 Scr=      1
 Normal termination of Gaussian 16 at Fri Nov  1 11:04:38 2024.
 (Enter /home/matma/Software/gaussian16.B01_files/AVX2/tar//g16/l1.exe)
 Link1:  Proceeding to internal job step number  2.
 ----------------------------------------------------------------------
 #P Geom=AllCheck Guess=TCheck SCRF=Check GenChk RPBE1PBE/6-311+G(d,p) 
 Freq
 ----------------------------------------------------------------------
 1/10=4,29=7,30=1,38=1,40=1/1,3;
 2/12=2,40=1/2;
 3/5=4,6=6,7=111,11=2,14=-4,25=1,30=1,70=2,71=2,74=-13,75=99590,116=1,124=31,140=1/1,2,3;
 4/5=101/1;
 5/5=2,38=6,98=1/2;
 8/6=4,10=90,11=11/1;
 11/6=1,8=1,9=11,15=111,16=1/1,2,10;
 10/6=1/2;
 6/7=2,8=2,9=2,10=2,28=1/1;
 7/8=1,10=1,25=1/1,2,3,16;
 1/10=4,30=1/3;
 99//99;
 Leave Link    1 at Fri Nov  1 11:04:38 2024, MaxMem=  4294967296 cpu:               0.4 elap:               0.0
 (Enter /home/matma/Software/gaussian16.B01_files/AVX2/tar//g16/l101.exe)
 Structure from the checkpoint file:  "input.chk"
 --------
 OPT+FREQ
 --------
 Charge =  0 Multiplicity = 1
 Redundant internal coordinates found in file.  (old form).
 O,0,-0.6556665469,1.1404033747,0.2512609486
 O,0,-0.8584724621,-2.4857132301,-0.3118852536
 O,0,1.9558097536,-1.9899472935,0.1148177594
 O,0,2.8442118556,0.6011831648,-0.4689250088
 O,0,0.9873563194,2.6964602267,0.0852860073
 O,0,-3.4178998564,0.9617778323,-0.0540025799
 C,0,-0.3598097527,-1.2470730418,0.1624368211
 C,0,1.0519914136,-1.0098776947,-0.3461683302
 C,0,-1.2390996078,-0.0615581289,-0.2206220805
 C,0,1.587040453,0.3405343608,0.0966136131
 C,0,0.6115509924,1.4385532795,-0.3193152631
 C,0,-2.6294967811,-0.1190252697,0.3765072714
 H,0,-0.333047889,-1.340231732,1.2534385892
 H,0,1.0283505353,-1.0117201235,-1.4514980512
 H,0,-1.3310340411,-0.0144719065,-1.3218766346
 H,0,1.6393455742,0.3426197166,1.1996143983
 H,0,0.5279506741,1.4765636942,-1.4145909122
 H,0,-2.5365440399,-0.1407122991,1.4728330777
 H,0,-3.1290653837,-1.0371613473,0.0608583206
 H,0,-1.0111958103,-2.4123158543,-1.2591602821
 H,0,1.5614399086,-2.852671726,-0.0456853838
 H,0,3.3869259239,-0.1796926668,-0.3223511304
 H,0,1.246171338,2.6617814697,1.0107401169
 H,0,-2.9250125707,1.764195195,0.1434739869
 Recover connectivity data from disk.
 ITRead=  0  0  0  0  0  0  0  0  0  0  0  0  0  0  0  0  0  0  0  0
 ITRead=  0  0  0  0
 MicOpt= -1 -1 -1 -1 -1 -1 -1 -1 -1 -1 -1 -1 -1 -1 -1 -1 -1 -1 -1 -1
 MicOpt= -1 -1 -1 -1
 NAtoms=     24 NQM=       24 NQMF=       0 NMMI=      0 NMMIF=      0
                NMic=       0 NMicF=      0.
                    Isotopes and Nuclear Properties:
 (Nuclear quadrupole moments (NQMom) in fm**2, nuclear magnetic moments (NMagM)
  in nuclear magnetons)

  Atom         1           2           3           4           5           6           7           8           9          10
 IAtWgt=          16          16          16          16          16          16          12          12          12          12
 AtmWgt=  15.9949146  15.9949146  15.9949146  15.9949146  15.9949146  15.9949146  12.0000000  12.0000000  12.0000000  12.0000000
 NucSpn=           0           0           0           0           0           0           0           0           0           0
 AtZEff=   5.6000000   5.6000000   5.6000000   5.6000000   5.6000000   5.6000000   3.6000000   3.6000000   3.6000000   3.6000000
 NQMom=    0.0000000   0.0000000   0.0000000   0.0000000   0.0000000   0.0000000   0.0000000   0.0000000   0.0000000   0.0000000
 NMagM=    0.0000000   0.0000000   0.0000000   0.0000000   0.0000000   0.0000000   0.0000000   0.0000000   0.0000000   0.0000000
 AtZNuc=   8.0000000   8.0000000   8.0000000   8.0000000   8.0000000   8.0000000   6.0000000   6.0000000   6.0000000   6.0000000

  Atom        11          12          13          14          15          16          17          18          19          20
 IAtWgt=          12          12           1           1           1           1           1           1           1           1
 AtmWgt=  12.0000000  12.0000000   1.0078250   1.0078250   1.0078250   1.0078250   1.0078250   1.0078250   1.0078250   1.0078250
 NucSpn=           0           0           1           1           1           1           1           1           1           1
 AtZEff=   3.6000000   3.6000000   1.0000000   1.0000000   1.0000000   1.0000000   1.0000000   1.0000000   1.0000000   1.0000000
 NQMom=    0.0000000   0.0000000   0.0000000   0.0000000   0.0000000   0.0000000   0.0000000   0.0000000   0.0000000   0.0000000
 NMagM=    0.0000000   0.0000000   2.7928460   2.7928460   2.7928460   2.7928460   2.7928460   2.7928460   2.7928460   2.7928460
 AtZNuc=   6.0000000   6.0000000   1.0000000   1.0000000   1.0000000   1.0000000   1.0000000   1.0000000   1.0000000   1.0000000

  Atom        21          22          23          24
 IAtWgt=           1           1           1           1
 AtmWgt=   1.0078250   1.0078250   1.0078250   1.0078250
 NucSpn=           1           1           1           1
 AtZEff=   1.0000000   1.0000000   1.0000000   1.0000000
 NQMom=    0.0000000   0.0000000   0.0000000   0.0000000
 NMagM=    2.7928460   2.7928460   2.7928460   2.7928460
 AtZNuc=   1.0000000   1.0000000   1.0000000   1.0000000
 Leave Link  101 at Fri Nov  1 11:04:39 2024, MaxMem=  4294967296 cpu:               6.8 elap:               0.3
 (Enter /home/matma/Software/gaussian16.B01_files/AVX2/tar//g16/l103.exe)

 GradGradGradGradGradGradGradGradGradGradGradGradGradGradGradGradGradGrad
 Berny optimization.
 Initialization pass.
                           ----------------------------
                           !    Initial Parameters    !
                           ! (Angstroms and Degrees)  !
 --------------------------                            --------------------------
 ! Name  Definition              Value          Derivative Info.                !
 --------------------------------------------------------------------------------
 ! R1    R(1,9)                  1.417          calculate D2E/DX2 analytically  !
 ! R2    R(1,11)                 1.4214         calculate D2E/DX2 analytically  !
 ! R3    R(2,7)                  1.417          calculate D2E/DX2 analytically  !
 ! R4    R(2,20)                 0.9623         calculate D2E/DX2 analytically  !
 ! R5    R(3,8)                  1.4106         calculate D2E/DX2 analytically  !
 ! R6    R(3,21)                 0.9621         calculate D2E/DX2 analytically  !
 ! R7    R(4,10)                 1.4029         calculate D2E/DX2 analytically  !
 ! R8    R(4,22)                 0.9622         calculate D2E/DX2 analytically  !
 ! R9    R(5,11)                 1.3738         calculate D2E/DX2 analytically  !
 ! R10   R(5,23)                 0.9616         calculate D2E/DX2 analytically  !
 ! R11   R(6,12)                 1.4054         calculate D2E/DX2 analytically  !
 ! R12   R(6,24)                 0.9622         calculate D2E/DX2 analytically  !
 ! R13   R(7,8)                  1.5193         calculate D2E/DX2 analytically  !
 ! R14   R(7,9)                  1.5249         calculate D2E/DX2 analytically  !
 ! R15   R(7,13)                 1.0953         calculate D2E/DX2 analytically  !
 ! R16   R(8,10)                 1.5185         calculate D2E/DX2 analytically  !
 ! R17   R(8,14)                 1.1056         calculate D2E/DX2 analytically  !
 ! R18   R(9,12)                 1.5143         calculate D2E/DX2 analytically  !
 ! R19   R(9,15)                 1.1061         calculate D2E/DX2 analytically  !
 ! R20   R(10,11)                1.5265         calculate D2E/DX2 analytically  !
 ! R21   R(10,16)                1.1042         calculate D2E/DX2 analytically  !
 ! R22   R(11,17)                1.0991         calculate D2E/DX2 analytically  !
 ! R23   R(12,18)                1.1005         calculate D2E/DX2 analytically  !
 ! R24   R(12,19)                1.0919         calculate D2E/DX2 analytically  !
 ! A1    A(9,1,11)             114.2893         calculate D2E/DX2 analytically  !
 ! A2    A(7,2,20)             108.5835         calculate D2E/DX2 analytically  !
 ! A3    A(8,3,21)             107.8101         calculate D2E/DX2 analytically  !
 ! A4    A(10,4,22)            107.0528         calculate D2E/DX2 analytically  !
 ! A5    A(11,5,23)            108.9084         calculate D2E/DX2 analytically  !
 ! A6    A(12,6,24)            106.9244         calculate D2E/DX2 analytically  !
 ! A7    A(2,7,8)              110.5754         calculate D2E/DX2 analytically  !
 ! A8    A(2,7,9)              113.1147         calculate D2E/DX2 analytically  !
 ! A9    A(2,7,13)             105.526          calculate D2E/DX2 analytically  !
 ! A10   A(8,7,9)              109.2909         calculate D2E/DX2 analytically  !
 ! A11   A(8,7,13)             108.9071         calculate D2E/DX2 analytically  !
 ! A12   A(9,7,13)             109.2948         calculate D2E/DX2 analytically  !
 ! A13   A(3,8,7)              112.1804         calculate D2E/DX2 analytically  !
 ! A14   A(3,8,10)             107.2659         calculate D2E/DX2 analytically  !
 ! A15   A(3,8,14)             109.8316         calculate D2E/DX2 analytically  !
 ! A16   A(7,8,10)             111.6325         calculate D2E/DX2 analytically  !
 ! A17   A(7,8,14)             108.3346         calculate D2E/DX2 analytically  !
 ! A18   A(10,8,14)            107.4897         calculate D2E/DX2 analytically  !
 ! A19   A(1,9,7)              109.7791         calculate D2E/DX2 analytically  !
 ! A20   A(1,9,12)             106.1965         calculate D2E/DX2 analytically  !
 ! A21   A(1,9,15)             109.2495         calculate D2E/DX2 analytically  !
 ! A22   A(7,9,12)             113.6334         calculate D2E/DX2 analytically  !
 ! A23   A(7,9,15)             109.3372         calculate D2E/DX2 analytically  !
 ! A24   A(12,9,15)            108.5363         calculate D2E/DX2 analytically  !
 ! A25   A(4,10,8)             111.3099         calculate D2E/DX2 analytically  !
 ! A26   A(4,10,11)            109.218          calculate D2E/DX2 analytically  !
 ! A27   A(4,10,16)            111.0915         calculate D2E/DX2 analytically  !
 ! A28   A(8,10,11)            109.5759         calculate D2E/DX2 analytically  !
 ! A29   A(8,10,16)            108.0367         calculate D2E/DX2 analytically  !
 ! A30   A(11,10,16)           107.5222         calculate D2E/DX2 analytically  !
 ! A31   A(1,11,5)             108.5258         calculate D2E/DX2 analytically  !
 ! A32   A(1,11,10)            108.0272         calculate D2E/DX2 analytically  !
 ! A33   A(1,11,17)            109.8443         calculate D2E/DX2 analytically  !
 ! A34   A(5,11,10)            113.8018         calculate D2E/DX2 analytically  !
 ! A35   A(5,11,17)            106.4172         calculate D2E/DX2 analytically  !
 ! A36   A(10,11,17)           110.1818         calculate D2E/DX2 analytically  !
 ! A37   A(6,12,9)             111.4147         calculate D2E/DX2 analytically  !
 ! A38   A(6,12,18)            111.575          calculate D2E/DX2 analytically  !
 ! A39   A(6,12,19)            107.5449         calculate D2E/DX2 analytically  !
 ! A40   A(9,12,18)            108.4234         calculate D2E/DX2 analytically  !
 ! A41   A(9,12,19)            109.7561         calculate D2E/DX2 analytically  !
 ! A42   A(18,12,19)           108.0638         calculate D2E/DX2 analytically  !
 ! D1    D(11,1,9,7)            63.002          calculate D2E/DX2 analytically  !
 ! D2    D(11,1,9,12)         -173.7628         calculate D2E/DX2 analytically  !
 ! D3    D(11,1,9,15)          -56.8857         calculate D2E/DX2 analytically  !
 ! D4    D(9,1,11,5)           172.4434         calculate D2E/DX2 analytically  !
 ! D5    D(9,1,11,10)          -63.7316         calculate D2E/DX2 analytically  !
 ! D6    D(9,1,11,17)           56.4781         calculate D2E/DX2 analytically  !
 ! D7    D(20,2,7,8)           -69.8307         calculate D2E/DX2 analytically  !
 ! D8    D(20,2,7,9)            53.1191         calculate D2E/DX2 analytically  !
 ! D9    D(20,2,7,13)          172.5556         calculate D2E/DX2 analytically  !
 ! D10   D(21,3,8,7)            48.8142         calculate D2E/DX2 analytically  !
 ! D11   D(21,3,8,10)          171.7443         calculate D2E/DX2 analytically  !
 ! D12   D(21,3,8,14)          -71.7267         calculate D2E/DX2 analytically  !
 ! D13   D(22,4,10,8)          -48.9318         calculate D2E/DX2 analytically  !
 ! D14   D(22,4,10,11)        -170.0529         calculate D2E/DX2 analytically  !
 ! D15   D(22,4,10,16)          71.5104         calculate D2E/DX2 analytically  !
 ! D16   D(23,5,11,1)           73.3573         calculate D2E/DX2 analytically  !
 ! D17   D(23,5,11,10)         -46.9428         calculate D2E/DX2 analytically  !
 ! D18   D(23,5,11,17)        -168.4806         calculate D2E/DX2 analytically  !
 ! D19   D(24,6,12,9)          -53.6937         calculate D2E/DX2 analytically  !
 ! D20   D(24,6,12,18)          67.6474         calculate D2E/DX2 analytically  !
 ! D21   D(24,6,12,19)        -174.0113         calculate D2E/DX2 analytically  !
 ! D22   D(2,7,8,3)            -62.14           calculate D2E/DX2 analytically  !
 ! D23   D(2,7,8,10)           177.4293         calculate D2E/DX2 analytically  !
 ! D24   D(2,7,8,14)            59.2638         calculate D2E/DX2 analytically  !
 ! D25   D(9,7,8,3)            172.7144         calculate D2E/DX2 analytically  !
 ! D26   D(9,7,8,10)            52.2837         calculate D2E/DX2 analytically  !
 ! D27   D(9,7,8,14)           -65.8818         calculate D2E/DX2 analytically  !
 ! D28   D(13,7,8,3)            53.378          calculate D2E/DX2 analytically  !
 ! D29   D(13,7,8,10)          -67.0527         calculate D2E/DX2 analytically  !
 ! D30   D(13,7,8,14)          174.7819         calculate D2E/DX2 analytically  !
 ! D31   D(2,7,9,1)           -178.19           calculate D2E/DX2 analytically  !
 ! D32   D(2,7,9,12)            63.0648         calculate D2E/DX2 analytically  !
 ! D33   D(2,7,9,15)           -58.3557         calculate D2E/DX2 analytically  !
 ! D34   D(8,7,9,1)            -54.5311         calculate D2E/DX2 analytically  !
 ! D35   D(8,7,9,12)          -173.2764         calculate D2E/DX2 analytically  !
 ! D36   D(8,7,9,15)            65.3031         calculate D2E/DX2 analytically  !
 ! D37   D(13,7,9,1)            64.5652         calculate D2E/DX2 analytically  !
 ! D38   D(13,7,9,12)          -54.1801         calculate D2E/DX2 analytically  !
 ! D39   D(13,7,9,15)         -175.6006         calculate D2E/DX2 analytically  !
 ! D40   D(3,8,10,4)            61.7424         calculate D2E/DX2 analytically  !
 ! D41   D(3,8,10,11)         -177.3461         calculate D2E/DX2 analytically  !
 ! D42   D(3,8,10,16)          -60.4831         calculate D2E/DX2 analytically  !
 ! D43   D(7,8,10,4)          -174.9895         calculate D2E/DX2 analytically  !
 ! D44   D(7,8,10,11)          -54.078          calculate D2E/DX2 analytically  !
 ! D45   D(7,8,10,16)           62.7849         calculate D2E/DX2 analytically  !
 ! D46   D(14,8,10,4)          -56.3194         calculate D2E/DX2 analytically  !
 ! D47   D(14,8,10,11)          64.5921         calculate D2E/DX2 analytically  !
 ! D48   D(14,8,10,16)        -178.5449         calculate D2E/DX2 analytically  !
 ! D49   D(1,9,12,6)            61.892          calculate D2E/DX2 analytically  !
 ! D50   D(1,9,12,18)          -61.2673         calculate D2E/DX2 analytically  !
 ! D51   D(1,9,12,19)         -179.1009         calculate D2E/DX2 analytically  !
 ! D52   D(7,9,12,6)          -177.3281         calculate D2E/DX2 analytically  !
 ! D53   D(7,9,12,18)           59.5126         calculate D2E/DX2 analytically  !
 ! D54   D(7,9,12,19)          -58.321          calculate D2E/DX2 analytically  !
 ! D55   D(15,9,12,6)          -55.4617         calculate D2E/DX2 analytically  !
 ! D56   D(15,9,12,18)        -178.621          calculate D2E/DX2 analytically  !
 ! D57   D(15,9,12,19)          63.5454         calculate D2E/DX2 analytically  !
 ! D58   D(4,10,11,1)          179.2199         calculate D2E/DX2 analytically  !
 ! D59   D(4,10,11,5)          -60.1998         calculate D2E/DX2 analytically  !
 ! D60   D(4,10,11,17)          59.2222         calculate D2E/DX2 analytically  !
 ! D61   D(8,10,11,1)           57.05           calculate D2E/DX2 analytically  !
 ! D62   D(8,10,11,5)          177.6303         calculate D2E/DX2 analytically  !
 ! D63   D(8,10,11,17)         -62.9477         calculate D2E/DX2 analytically  !
 ! D64   D(16,10,11,1)         -60.1364         calculate D2E/DX2 analytically  !
 ! D65   D(16,10,11,5)          60.4439         calculate D2E/DX2 analytically  !
 ! D66   D(16,10,11,17)        179.8659         calculate D2E/DX2 analytically  !
 --------------------------------------------------------------------------------
 Trust Radius=3.00D-01 FncErr=1.00D-07 GrdErr=1.00D-07 EigMax=2.50D+02 EigMin=1.00D-04
 Number of steps in this run=      2 maximum allowed number of steps=      2.
 GradGradGradGradGradGradGradGradGradGradGradGradGradGradGradGradGradGrad

 Leave Link  103 at Fri Nov  1 11:04:39 2024, MaxMem=  4294967296 cpu:               0.2 elap:               0.0
 (Enter /home/matma/Software/gaussian16.B01_files/AVX2/tar//g16/l202.exe)
                          Input orientation:                          
 ---------------------------------------------------------------------
 Center     Atomic      Atomic             Coordinates (Angstroms)
 Number     Number       Type             X           Y           Z
 ---------------------------------------------------------------------
      1          8           0       -0.655667    1.140403    0.251261
      2          8           0       -0.858472   -2.485713   -0.311885
      3          8           0        1.955810   -1.989947    0.114818
      4          8           0        2.844212    0.601183   -0.468925
      5          8           0        0.987356    2.696460    0.085286
      6          8           0       -3.417900    0.961778   -0.054003
      7          6           0       -0.359810   -1.247073    0.162437
      8          6           0        1.051991   -1.009878   -0.346168
      9          6           0       -1.239100   -0.061558   -0.220622
     10          6           0        1.587040    0.340534    0.096614
     11          6           0        0.611551    1.438553   -0.319315
     12          6           0       -2.629497   -0.119025    0.376507
     13          1           0       -0.333048   -1.340232    1.253439
     14          1           0        1.028351   -1.011720   -1.451498
     15          1           0       -1.331034   -0.014472   -1.321877
     16          1           0        1.639346    0.342620    1.199614
     17          1           0        0.527951    1.476564   -1.414591
     18          1           0       -2.536544   -0.140712    1.472833
     19          1           0       -3.129065   -1.037161    0.060858
     20          1           0       -1.011196   -2.412316   -1.259160
     21          1           0        1.561440   -2.852672   -0.045685
     22          1           0        3.386926   -0.179693   -0.322351
     23          1           0        1.246171    2.661781    1.010740
     24          1           0       -2.925013    1.764195    0.143474
 ---------------------------------------------------------------------
                    Distance matrix (angstroms):
                    1          2          3          4          5
     1  O    0.000000
     2  O    3.675185   0.000000
     3  O    4.078912   2.889298   0.000000
     4  O    3.613665   4.823221   2.800709   0.000000
     5  O    2.269005   5.515410   4.785519   2.853988   0.000000
     6  O    2.784785   4.301438   6.133346   6.286194   4.736539
     7  C    2.407377   1.416995   2.432329   3.752389   4.168005
     8  C    2.810111   2.414361   1.410650   2.413015   3.731926
     9  C    1.416961   2.455552   3.746819   4.144190   3.557717
    10  C    2.386093   3.759665   2.359548   1.402944   2.431077
    11  C    1.421369   4.190572   3.708115   2.389215   1.373776
    12  C    2.344750   3.035066   4.959220   5.585243   4.592755
    13  H    2.694809   2.009586   2.637699   4.102512   4.404876
    14  H    3.219773   2.651693   2.066508   2.619973   4.014223
    15  H    2.065096   2.711168   4.095111   4.305721   3.834605
    16  H    2.608240   4.064873   2.591872   2.074267   2.684657
    17  H    2.070994   4.340250   4.049021   2.650593   1.987167
    18  H    2.582866   3.391191   5.044315   5.768307   4.732093
    19  H    3.300870   2.718976   5.173651   6.216501   5.557468
    20  H    3.876801   0.962311   3.296867   4.956795   5.648127
    21  H    4.576941   2.462011   0.962072   3.708605   5.580286
    22  H    4.291181   4.831278   2.348666   0.962180   3.767805
    23  H    2.551154   5.716254   4.790078   2.998201   0.961589
    24  H    2.355985   4.747595   6.157665   5.917058   4.022329
                    6          7          8          9         10
     6  O    0.000000
     7  C    3.778595   0.000000
     8  C    4.894151   1.519251   0.000000
     9  C    2.412913   1.524903   2.482775   0.000000
    10  C    5.045598   2.512977   1.518534   2.872174   0.000000
    11  C    4.066224   2.896242   2.487875   2.384320   1.526506
    12  C    1.405366   2.543580   3.856064   1.514289   4.250732
    13  H    4.065091   1.095299   2.141544   2.151462   2.801778
    14  H    5.061307   2.141767   1.105584   2.749399   2.130112
    15  H    2.629748   2.160039   2.760734   1.106088   3.263940
    16  H    5.246965   2.756716   2.136277   3.235101   1.104242
    17  H    4.205466   3.270066   2.756544   2.629420   2.167019
    18  H    2.079303   2.771163   4.116042   2.134811   4.373732
    19  H    2.022962   2.779057   4.200911   2.145461   4.913347
    20  H    4.316148   1.950137   2.656526   2.580032   4.020838
    21  H    6.272473   2.512461   1.935386   3.957770   3.196478
    22  H    6.905115   3.925856   2.478244   4.628652   1.919832
    23  H    5.077130   4.310213   3.919182   3.887082   2.517937
    24  H    0.962189   3.955801   4.873581   2.511622   4.731557
                   11         12         13         14         15
    11  C    0.000000
    12  C    3.662596   0.000000
    13  H    3.329785   2.744819   0.000000
    14  H    2.731190   4.185493   3.045982   0.000000
    15  H    2.624890   2.140431   3.063636   2.564761   0.000000
    16  H    2.136488   4.371915   2.593303   3.039070   3.912619
    17  H    1.099119   3.965276   3.974171   2.538369   2.384870
    18  H    3.951756   1.100473   2.518407   4.692424   3.046243
    19  H    4.501767   1.091869   3.054802   4.424023   2.488125
    20  H    4.283201   3.248613   2.814676   2.481615   2.419894
    21  H    4.403609   5.021456   2.750324   2.376888   4.248582
    22  H    3.212699   6.057180   4.203352   2.744106   4.825505
    23  H    1.915223   4.812062   4.309170   4.427717   4.386960
    24  H    3.581550   1.920457   4.193777   5.087113   2.802084
                   16         17         18         19         20
    16  H    0.000000
    17  H    3.058610   0.000000
    18  H    4.212637   4.510424   0.000000
    19  H    5.092966   4.676487   1.774366   0.000000
    20  H    4.545395   4.185274   3.866608   2.849363   0.000000
    21  H    3.430266   4.656638   5.143354   5.030732   2.878348
    22  H    2.375548   3.479930   6.189645   6.583331   5.020527
    23  H    2.359824   2.793352   4.730374   5.807508   5.999551
    24  H    4.895883   3.799112   2.355159   2.809993   4.803470
                   21         22         23         24
    21  H    0.000000
    22  H    3.248655   0.000000
    23  H    5.623577   3.799202   0.000000
    24  H    6.440458   6.620896   4.353916   0.000000
 Stoichiometry    C6H12O6
 Framework group  C1[X(C6H12O6)]
 Deg. of freedom    66
 Full point group                 C1      NOp   1
 RotChk:  IX=0 Diff= 2.20D-15
 Largest Abelian subgroup         C1      NOp   1
 Largest concise Abelian subgroup C1      NOp   1
                         Standard orientation:                         
 ---------------------------------------------------------------------
 Center     Atomic      Atomic             Coordinates (Angstroms)
 Number     Number       Type             X           Y           Z
 ---------------------------------------------------------------------
      1          8           0       -0.707894   -1.114013   -0.230432
      2          8           0       -0.729235    2.535819    0.199983
      3          8           0        2.037167    1.900961   -0.340404
      4          8           0        2.842840   -0.703554    0.300970
      5          8           0        0.874032   -2.733870   -0.082252
      6          8           0       -3.441741   -0.802546    0.198630
      7          6           0       -0.307332    1.259734   -0.248882
      8          6           0        1.116483    0.979393    0.200877
      9          6           0       -1.216060    0.129105    0.221459
     10          6           0        1.571521   -0.408721   -0.213882
     11          6           0        0.572113   -1.446542    0.290432
     12          6           0       -2.630470    0.225806   -0.310671
     13          1           0       -0.330351    1.311325   -1.342723
     14          1           0        1.147338    1.023037    1.305169
     15          1           0       -1.255623    0.126764    1.326837
     16          1           0        1.569373   -0.453786   -1.317202
     17          1           0        0.540955   -1.440411    1.389092
     18          1           0       -2.590722    0.202926   -1.410188
     19          1           0       -3.074636    1.176106   -0.007646
     20          1           0       -0.838146    2.504215    1.155588
     21          1           0        1.688004    2.785578   -0.195073
     22          1           0        3.410222    0.046678    0.098438
     23          1           0        1.088247   -2.744797   -1.019613
     24          1           0       -2.993537   -1.632665    0.009361
 ---------------------------------------------------------------------
 Rotational constants (GHZ):           1.1720955           0.7953931           0.4956715
 Leave Link  202 at Fri Nov  1 11:04:39 2024, MaxMem=  4294967296 cpu:               0.1 elap:               0.0
 (Enter /home/matma/Software/gaussian16.B01_files/AVX2/tar//g16/l301.exe)
 Standard basis: 6-311+G(d,p) (5D, 7F)
 Ernie: Thresh=  0.10000D-02 Tol=  0.10000D-05 Strict=F.
 There are   348 symmetry adapted cartesian basis functions of A   symmetry.
 There are   336 symmetry adapted basis functions of A   symmetry.
   336 basis functions,   528 primitive gaussians,   348 cartesian basis functions
    48 alpha electrons       48 beta electrons
       nuclear repulsion energy       828.2150604147 Hartrees.
 IExCor= 1009 DFT=T Ex+Corr=PBE1PBE ExCW=0 ScaHFX=  0.250000
 ScaDFX=  0.750000  0.750000  1.000000  1.000000 ScalE2=  1.000000  1.000000
 IRadAn=  99590 IRanWt=     -1 IRanGd=            0 ICorTp=0 IEmpDi=131
 NAtoms=   24 NActive=   24 NUniq=   24 SFac= 1.00D+00 NAtFMM=   60 NAOKFM=F Big=F
 Integral buffers will be    131072 words long.
 Raffenetti 2 integral format.
 Two-electron integral symmetry is turned on.
 R6Disp:  Grimme-D3 Dispersion energy=       -0.0157196038 Hartrees.
 Nuclear repulsion after empirical dispersion term =      828.1993408109 Hartrees.
 Leave Link  301 at Fri Nov  1 11:04:39 2024, MaxMem=  4294967296 cpu:               0.7 elap:               0.0
 (Enter /home/matma/Software/gaussian16.B01_files/AVX2/tar//g16/l302.exe)
 NPDir=0 NMtPBC=     1 NCelOv=     1 NCel=       1 NClECP=     1 NCelD=      1
         NCelK=      1 NCelE2=     1 NClLst=     1 CellRange=     0.0.
 One-electron integrals computed using PRISM.
 One-electron integral symmetry used in STVInt
 NBasis=   336 RedAO= T EigKep=  7.75D-06  NBF=   336
 NBsUse=   336 1.00D-06 EigRej= -1.00D+00 NBFU=   336
 Precomputing XC quadrature grid using
 IXCGrd= 4 IRadAn=       99590 IRanWt=          -1 IRanGd=           0 AccXCQ= 0.00D+00.
 Generated NRdTot=       0 NPtTot=           0 NUsed=           0 NTot=          32
 NSgBfM=   348   348   348   348   348 MxSgAt=    24 MxSgA2=    24.
 Leave Link  302 at Fri Nov  1 11:04:39 2024, MaxMem=  4294967296 cpu:               5.4 elap:               0.2
 (Enter /home/matma/Software/gaussian16.B01_files/AVX2/tar//g16/l303.exe)
 DipDrv:  MaxL=1.
 Leave Link  303 at Fri Nov  1 11:04:39 2024, MaxMem=  4294967296 cpu:               0.8 elap:               0.0
 (Enter /home/matma/Software/gaussian16.B01_files/AVX2/tar//g16/l401.exe)
 Initial guess from the checkpoint file:  "input.chk"
 B after Tr=     0.000000   -0.000000   -0.000000
         Rot=    1.000000    0.000000   -0.000000    0.000000 Ang=   0.00 deg.
 Guess basis will be translated and rotated to current coordinates.
 JPrj=2 DoOrth=T DoCkMO=T.
 Leave Link  401 at Fri Nov  1 11:04:39 2024, MaxMem=  4294967296 cpu:               3.6 elap:               0.1
 (Enter /home/matma/Software/gaussian16.B01_files/AVX2/tar//g16/l502.exe)
 Integral symmetry usage will be decided dynamically.
 Closed shell SCF:
 Using DIIS extrapolation, IDIIS=  1040.
 NGot=  4294967296 LenX=  4294711890 LenY=  4294590345
 Requested convergence on RMS density matrix=1.00D-08 within 128 cycles.
 Requested convergence on MAX density matrix=1.00D-06.
 Requested convergence on             energy=1.00D-06.
 No special actions if energy rises.
 Fock matrices will be formed incrementally for  20 cycles.

 Cycle   1  Pass 1  IDiag  1:
 FoFJK:  IHMeth= 1 ICntrl=       0 DoSepK=F KAlg= 0 I1Cent=           0 FoldK=F
 IRaf= 920000000 NMat=       1 IRICut=       1 DoRegI=T DoRafI=F ISym2E= 0 IDoP0=0 IntGTp=1.
 FoFCou: FMM=F IPFlag=           0 FMFlag=      100000 FMFlg1=           0
         NFxFlg=           0 DoJE=F BraDBF=F KetDBF=F FulRan=T
         wScrn=  0.000000 ICntrl=         0 IOpCl=  0 I1Cent=           0 NGrid=           0
         NMat0=    1 NMatS0=      1 NMatT0=    0 NMatD0=    1 NMtDS0=    0 NMtDT0=    0
 Symmetry not used in FoFCou.
 E= -686.661824245690    
 DIIS: error= 3.17D-09 at cycle   1 NSaved=   1.
 NSaved= 1 IEnMin= 1 EnMin= -686.661824245690     IErMin= 1 ErrMin= 3.17D-09
 ErrMax= 3.17D-09  0.00D+00 EMaxC= 1.00D-01 BMatC= 7.55D-15 BMatP= 7.55D-15
 IDIUse=1 WtCom= 1.00D+00 WtEn= 0.00D+00
 Coeff-Com:  0.100D+01
 Coeff:      0.100D+01
 Gap=     0.278 Goal=   None    Shift=    0.000
 RMSDP=2.58D-09 MaxDP=3.30D-07              OVMax= 3.15D-08

 SCF Done:  E(RPBE1PBE) =  -686.661824246     A.U. after    1 cycles
            NFock=  1  Conv=0.26D-08     -V/T= 2.0032
 KE= 6.844627619025D+02 PE=-3.269692726869D+03 EE= 1.070368799910D+03
 Leave Link  502 at Fri Nov  1 11:04:41 2024, MaxMem=  4294967296 cpu:              46.0 elap:               1.7
 (Enter /home/matma/Software/gaussian16.B01_files/AVX2/tar//g16/l801.exe)
 DoSCS=F DFT=T ScalE2(SS,OS)=  1.000000  1.000000
 Range of M.O.s used for correlation:     1   336
 NBasis=   336 NAE=    48 NBE=    48 NFC=     0 NFV=     0
 NROrb=    336 NOA=    48 NOB=    48 NVA=   288 NVB=   288

 **** Warning!!: The largest alpha MO coefficient is  0.68992879D+02

 Leave Link  801 at Fri Nov  1 11:04:41 2024, MaxMem=  4294967296 cpu:               0.4 elap:               0.0
 (Enter /home/matma/Software/gaussian16.B01_files/AVX2/tar//g16/l1101.exe)
 Using compressed storage, NAtomX=    24.
 Will process     25 centers per pass.
 R6Disp: Adding Grimme-D3 dispersion energy 1st derivatives to the gradient.
 Leave Link 1101 at Fri Nov  1 11:04:41 2024, MaxMem=  4294967296 cpu:               7.7 elap:               0.3
 (Enter /home/matma/Software/gaussian16.B01_files/AVX2/tar//g16/l1102.exe)
 Symmetrizing basis deriv contribution to polar:
 IMax=3 JMax=2 DiffMx= 0.00D+00
 Leave Link 1102 at Fri Nov  1 11:04:41 2024, MaxMem=  4294967296 cpu:               0.7 elap:               0.0
 (Enter /home/matma/Software/gaussian16.B01_files/AVX2/tar//g16/l1110.exe)
 Forming Gx(P) for the SCF density, NAtomX=    24.
 Integral derivatives from FoFJK, PRISM(SPDF).
 Do as many integral derivatives as possible in FoFJK.
 G2DrvN: MDV=    4294965240.
 G2DrvN: will do    25 centers at a time, making    1 passes.
 Calling FoFCou, ICntrl=  3107 FMM=F I1Cent=   0 AccDes= 0.00D+00.
 FoFJK:  IHMeth= 1 ICntrl=    3107 DoSepK=F KAlg= 0 I1Cent=           0 FoldK=F
 IRaf=         0 NMat=       1 IRICut=       1 DoRegI=T DoRafI=F ISym2E= 0 IDoP0=0 IntGTp=1.
 FoFCou: FMM=F IPFlag=           0 FMFlag=      100000 FMFlg1=           0
         NFxFlg=           0 DoJE=F BraDBF=F KetDBF=F FulRan=T
         wScrn=  0.000000 ICntrl=      3107 IOpCl=  0 I1Cent=           0 NGrid=           0
         NMat0=    1 NMatS0=      1 NMatT0=    0 NMatD0=    1 NMtDS0=    0 NMtDT0=    0
 Symmetry not used in FoFCou.
 End of G2Drv F.D. properties file   721 does not exist.
 End of G2Drv F.D. properties file   722 does not exist.
 End of G2Drv F.D. properties file   788 does not exist.
 Leave Link 1110 at Fri Nov  1 11:05:18 2024, MaxMem=  4294967296 cpu:            1034.8 elap:              37.0
 (Enter /home/matma/Software/gaussian16.B01_files/AVX2/tar//g16/l1002.exe)
 Minotr:  Closed shell wavefunction.
          IDoAtm=111111111111111111111111
          Direct CPHF calculation.
          Differentiating once with respect to electric field.
                with respect to dipole field.
          Differentiating once with respect to nuclear coordinates.
          Requested convergence is 1.0D-08 RMS, and 1.0D-07 maximum.
          Secondary convergence is 1.0D-12 RMS, and 1.0D-12 maximum.
          NewPWx=T KeepS1=F KeepF1=F KeepIn=T MapXYZ=F SortEE=F KeepMc=T.
        16729 words used for storage of precomputed grid.
 Keep R1 ints in memory in canonical form, NReq=1635073619.
 FoFCou: FMM=F IPFlag=           0 FMFlag=           0 FMFlg1=           0
         NFxFlg=           0 DoJE=F BraDBF=F KetDBF=F FulRan=T
         wScrn=  0.000000 ICntrl=       600 IOpCl=  0 I1Cent=           0 NGrid=           0
         NMat0=    1 NMatS0=  56616 NMatT0=    0 NMatD0=    1 NMtDS0=    0 NMtDT0=    0
 Symmetry not used in FoFCou.
 Two-electron integral symmetry not used.
          MDV=    4294967296 using IRadAn=   99302.
          Solving linear equations simultaneously, MaxMat=       0.
          There are    75 degrees of freedom in the 1st order CPHF.  IDoFFX=6 NUNeed=     3.
     72 vectors produced by pass  0 Test12= 1.84D-14 1.33D-09 XBig12= 5.47D+01 1.38D+00.
 AX will form    72 AO Fock derivatives at one time.
     72 vectors produced by pass  1 Test12= 1.84D-14 1.33D-09 XBig12= 6.61D+00 2.41D-01.
     72 vectors produced by pass  2 Test12= 1.84D-14 1.33D-09 XBig12= 8.11D-02 2.59D-02.
     72 vectors produced by pass  3 Test12= 1.84D-14 1.33D-09 XBig12= 3.93D-04 2.16D-03.
     72 vectors produced by pass  4 Test12= 1.84D-14 1.33D-09 XBig12= 1.07D-06 8.59D-05.
     68 vectors produced by pass  5 Test12= 1.84D-14 1.33D-09 XBig12= 1.66D-09 2.84D-06.
     29 vectors produced by pass  6 Test12= 1.84D-14 1.33D-09 XBig12= 2.01D-12 1.01D-07.
      3 vectors produced by pass  7 Test12= 1.84D-14 1.33D-09 XBig12= 2.46D-15 3.27D-09.
 InvSVY:  IOpt=1 It=  1 EMax= 6.22D-15
 Solved reduced A of dimension   460 with    75 vectors.
 FullF1:  Do perturbations      1 to       3.
 Isotropic polarizability for W=    0.000000       94.47 Bohr**3.
 End of Minotr F.D. properties file   721 does not exist.
 End of Minotr F.D. properties file   722 does not exist.
 End of Minotr F.D. properties file   788 does not exist.
 Leave Link 1002 at Fri Nov  1 11:07:24 2024, MaxMem=  4294967296 cpu:            3507.3 elap:             125.3
 (Enter /home/matma/Software/gaussian16.B01_files/AVX2/tar//g16/l601.exe)
 Copying SCF densities to generalized density rwf, IOpCl= 0 IROHF=0.

 **********************************************************************

            Population analysis using the SCF Density.

 **********************************************************************

 Orbital symmetries:
       Occupied  (A) (A) (A) (A) (A) (A) (A) (A) (A) (A) (A) (A)
                 (A) (A) (A) (A) (A) (A) (A) (A) (A) (A) (A) (A)
                 (A) (A) (A) (A) (A) (A) (A) (A) (A) (A) (A) (A)
                 (A) (A) (A) (A) (A) (A) (A) (A) (A) (A) (A) (A)
       Virtual   (A) (A) (A) (A) (A) (A) (A) (A) (A) (A) (A) (A)
                 (A) (A) (A) (A) (A) (A) (A) (A) (A) (A) (A) (A)
                 (A) (A) (A) (A) (A) (A) (A) (A) (A) (A) (A) (A)
                 (A) (A) (A) (A) (A) (A) (A) (A) (A) (A) (A) (A)
                 (A) (A) (A) (A) (A) (A) (A) (A) (A) (A) (A) (A)
                 (A) (A) (A) (A) (A) (A) (A) (A) (A) (A) (A) (A)
                 (A) (A) (A) (A) (A) (A) (A) (A) (A) (A) (A) (A)
                 (A) (A) (A) (A) (A) (A) (A) (A) (A) (A) (A) (A)
                 (A) (A) (A) (A) (A) (A) (A) (A) (A) (A) (A) (A)
                 (A) (A) (A) (A) (A) (A) (A) (A) (A) (A) (A) (A)
                 (A) (A) (A) (A) (A) (A) (A) (A) (A) (A) (A) (A)
                 (A) (A) (A) (A) (A) (A) (A) (A) (A) (A) (A) (A)
                 (A) (A) (A) (A) (A) (A) (A) (A) (A) (A) (A) (A)
                 (A) (A) (A) (A) (A) (A) (A) (A) (A) (A) (A) (A)
                 (A) (A) (A) (A) (A) (A) (A) (A) (A) (A) (A) (A)
                 (A) (A) (A) (A) (A) (A) (A) (A) (A) (A) (A) (A)
                 (A) (A) (A) (A) (A) (A) (A) (A) (A) (A) (A) (A)
                 (A) (A) (A) (A) (A) (A) (A) (A) (A) (A) (A) (A)
                 (A) (A) (A) (A) (A) (A) (A) (A) (A) (A) (A) (A)
                 (A) (A) (A) (A) (A) (A) (A) (A) (A) (A) (A) (A)
                 (A) (A) (A) (A) (A) (A) (A) (A) (A) (A) (A) (A)
                 (A) (A) (A) (A) (A) (A) (A) (A) (A) (A) (A) (A)
                 (A) (A) (A) (A) (A) (A) (A) (A) (A) (A) (A) (A)
                 (A) (A) (A) (A) (A) (A) (A) (A) (A) (A) (A) (A)
 The electronic state is 1-A.
 Alpha  occ. eigenvalues --  -19.24078 -19.23697 -19.23131 -19.22783 -19.21941
 Alpha  occ. eigenvalues --  -19.20848 -10.34021 -10.29957 -10.29781 -10.29773
 Alpha  occ. eigenvalues --  -10.29382 -10.27729  -1.13364  -1.10375  -1.08808
 Alpha  occ. eigenvalues --   -1.07341  -1.06648  -1.05566  -0.83340  -0.81340
 Alpha  occ. eigenvalues --   -0.72788  -0.69127  -0.65964  -0.64681  -0.59340
 Alpha  occ. eigenvalues --   -0.57877  -0.55800  -0.53835  -0.53561  -0.51942
 Alpha  occ. eigenvalues --   -0.50408  -0.49586  -0.47425  -0.45312  -0.44165
 Alpha  occ. eigenvalues --   -0.43472  -0.41267  -0.40349  -0.39239  -0.37994
 Alpha  occ. eigenvalues --   -0.36977  -0.36858  -0.34153  -0.32903  -0.31872
 Alpha  occ. eigenvalues --   -0.30587  -0.30129  -0.29007
 Alpha virt. eigenvalues --   -0.01158   0.00441   0.01363   0.02008   0.03252
 Alpha virt. eigenvalues --    0.04088   0.04515   0.05141   0.05558   0.06742
 Alpha virt. eigenvalues --    0.08248   0.08754   0.09334   0.09933   0.10071
 Alpha virt. eigenvalues --    0.10814   0.11165   0.12391   0.13224   0.13731
 Alpha virt. eigenvalues --    0.14365   0.14524   0.15560   0.15922   0.16259
 Alpha virt. eigenvalues --    0.16984   0.17425   0.18272   0.19062   0.19445
 Alpha virt. eigenvalues --    0.19790   0.20513   0.20897   0.21233   0.21815
 Alpha virt. eigenvalues --    0.22027   0.22753   0.23316   0.23748   0.24250
 Alpha virt. eigenvalues --    0.24619   0.24985   0.25695   0.26337   0.26970
 Alpha virt. eigenvalues --    0.27525   0.28503   0.28749   0.28924   0.29310
 Alpha virt. eigenvalues --    0.30040   0.30442   0.30847   0.31992   0.32170
 Alpha virt. eigenvalues --    0.32597   0.33290   0.33856   0.34219   0.34532
 Alpha virt. eigenvalues --    0.35020   0.35273   0.37003   0.37500   0.38187
 Alpha virt. eigenvalues --    0.39055   0.39366   0.40527   0.41187   0.42545
 Alpha virt. eigenvalues --    0.43440   0.46182   0.49359   0.50348   0.51125
 Alpha virt. eigenvalues --    0.53269   0.54506   0.55476   0.55901   0.56561
 Alpha virt. eigenvalues --    0.58247   0.58715   0.60439   0.63168   0.63622
 Alpha virt. eigenvalues --    0.64979   0.66142   0.66977   0.67808   0.68602
 Alpha virt. eigenvalues --    0.69381   0.70232   0.71963   0.72524   0.73665
 Alpha virt. eigenvalues --    0.74258   0.75536   0.76429   0.77198   0.79510
 Alpha virt. eigenvalues --    0.80794   0.87848   0.91316   0.94509   0.96748
 Alpha virt. eigenvalues --    0.97531   1.00316   1.02757   1.04126   1.07289
 Alpha virt. eigenvalues --    1.08043   1.10566   1.11146   1.12933   1.13911
 Alpha virt. eigenvalues --    1.15507   1.15907   1.16240   1.16917   1.17997
 Alpha virt. eigenvalues --    1.19754   1.20385   1.21460   1.23138   1.24099
 Alpha virt. eigenvalues --    1.25423   1.25912   1.27089   1.28680   1.32856
 Alpha virt. eigenvalues --    1.33736   1.38768   1.39087   1.41990   1.42536
 Alpha virt. eigenvalues --    1.43081   1.45947   1.46931   1.49108   1.49513
 Alpha virt. eigenvalues --    1.51524   1.52363   1.54493   1.54951   1.56697
 Alpha virt. eigenvalues --    1.57858   1.58803   1.58902   1.60531   1.61026
 Alpha virt. eigenvalues --    1.63095   1.64606   1.66073   1.66587   1.70373
 Alpha virt. eigenvalues --    1.71685   1.72327   1.73333   1.74502   1.76960
 Alpha virt. eigenvalues --    1.78737   1.80324   1.82415   1.83690   1.84853
 Alpha virt. eigenvalues --    1.85675   1.87509   1.90182   1.93022   1.94174
 Alpha virt. eigenvalues --    1.98209   1.98756   2.01531   2.06400   2.06701
 Alpha virt. eigenvalues --    2.08107   2.09974   2.11405   2.12089   2.13548
 Alpha virt. eigenvalues --    2.14757   2.15663   2.16749   2.17836   2.21512
 Alpha virt. eigenvalues --    2.21817   2.25326   2.27099   2.33332   2.34058
 Alpha virt. eigenvalues --    2.36148   2.48311   2.50011   2.51014   2.53232
 Alpha virt. eigenvalues --    2.55021   2.58714   2.60037   2.60689   2.65077
 Alpha virt. eigenvalues --    2.66357   2.69676   2.70182   2.72981   2.78574
 Alpha virt. eigenvalues --    2.82866   2.84186   2.85503   2.87747   2.90235
 Alpha virt. eigenvalues --    2.94611   2.95279   2.97715   2.99576   3.00967
 Alpha virt. eigenvalues --    3.01406   3.03688   3.06929   3.09425   3.09618
 Alpha virt. eigenvalues --    3.11465   3.13018   3.14667   3.16104   3.16298
 Alpha virt. eigenvalues --    3.17761   3.19033   3.20736   3.23036   3.27302
 Alpha virt. eigenvalues --    3.28633   3.31940   3.33235   3.35193   3.38627
 Alpha virt. eigenvalues --    3.39042   3.41361   3.47275   3.56580   3.60995
 Alpha virt. eigenvalues --    3.78641   3.81476   3.83098   3.88595   3.90581
 Alpha virt. eigenvalues --    3.92584   3.92973   3.97245   3.99639   4.01629
 Alpha virt. eigenvalues --    4.03337   4.07083   4.13410   4.18295   4.20366
 Alpha virt. eigenvalues --    4.27885   4.35425   4.36569   5.10973   5.11685
 Alpha virt. eigenvalues --    5.12338   5.14094   5.14490   5.17311   5.36753
 Alpha virt. eigenvalues --    5.41367   5.44721   5.45965   5.48350   5.49742
 Alpha virt. eigenvalues --    5.64693   5.68459   5.70129   5.71426   5.73763
 Alpha virt. eigenvalues --    5.85503  23.82699  23.86787  23.89379  23.92374
 Alpha virt. eigenvalues --   23.94794  23.98981  50.03048  50.04340  50.05506
 Alpha virt. eigenvalues --   50.07751  50.09761  50.11096
          Condensed to atoms (all electrons):
               1          2          3          4          5          6
     1  O    8.205884   0.009937  -0.009495   0.009241  -0.005016  -0.013085
     2  O    0.009937   8.044386  -0.005329  -0.000206   0.000612  -0.003174
     3  O   -0.009495  -0.005329   8.038142  -0.011585  -0.002329   0.000196
     4  O    0.009241  -0.000206  -0.011585   7.935003   0.025308   0.000035
     5  O   -0.005016   0.000612  -0.002329   0.025308   7.819684   0.000987
     6  O   -0.013085  -0.003174   0.000196   0.000035   0.000987   7.963299
     7  C   -0.172229   0.119332  -0.192674   0.008344   0.003284   0.053014
     8  C    0.040819  -0.276530   0.271073  -0.261908   0.012551  -0.004717
     9  C    0.252751   0.047823   0.067490   0.012359  -0.001341  -0.028427
    10  C   -0.061108   0.135383  -0.145811   0.544997   0.011716  -0.000694
    11  C   -0.014180  -0.008334   0.077940  -0.203008   0.151484   0.012015
    12  C   -0.068409  -0.010453  -0.012946  -0.000718  -0.012740   0.117969
    13  H    0.000134  -0.064721  -0.009717  -0.000629   0.000484  -0.000098
    14  H    0.001950  -0.017742  -0.058632  -0.010366  -0.000398   0.000202
    15  H   -0.047901  -0.005487  -0.001281  -0.000011   0.001830   0.000451
    16  H    0.005188  -0.000693  -0.012390  -0.064474  -0.010796   0.000070
    17  H   -0.038186   0.000873  -0.001346  -0.003607  -0.058154  -0.000360
    18  H   -0.021152  -0.006615  -0.000054   0.000002   0.000448  -0.041657
    19  H    0.016589   0.018809   0.000170  -0.000010   0.000022  -0.055309
    20  H    0.000469   0.233721  -0.001509   0.000021   0.000016  -0.000088
    21  H    0.000355   0.020907   0.238607   0.003393   0.000015  -0.000003
    22  H    0.000001  -0.000276   0.026012   0.231741  -0.001067   0.000002
    23  H   -0.007217  -0.000019   0.000147  -0.006396   0.274814  -0.000020
    24  H    0.029542   0.000218  -0.000045  -0.000042  -0.000506   0.261839
               7          8          9         10         11         12
     1  O   -0.172229   0.040819   0.252751  -0.061108  -0.014180  -0.068409
     2  O    0.119332  -0.276530   0.047823   0.135383  -0.008334  -0.010453
     3  O   -0.192674   0.271073   0.067490  -0.145811   0.077940  -0.012946
     4  O    0.008344  -0.261908   0.012359   0.544997  -0.203008  -0.000718
     5  O    0.003284   0.012551  -0.001341   0.011716   0.151484  -0.012740
     6  O    0.053014  -0.004717  -0.028427  -0.000694   0.012015   0.117969
     7  C   10.237966  -1.660513  -2.350604  -0.798913   0.339283   0.109103
     8  C   -1.660513   9.705350   0.464969  -1.973116  -0.081574  -0.503869
     9  C   -2.350604   0.464969   8.943958   0.262552  -0.420678  -1.121889
    10  C   -0.798913  -1.973116   0.262552   9.118368  -1.397509   0.345835
    11  C    0.339283  -0.081574  -0.420678  -1.397509   7.488247  -0.306663
    12  C    0.109103  -0.503869  -1.121889   0.345835  -0.306663   6.938097
    13  H    0.545810  -0.014162  -0.120193  -0.028235  -0.007125   0.003126
    14  H    0.038660   0.530392  -0.041854  -0.142073  -0.021461   0.007675
    15  H   -0.045783   0.003207   0.455815   0.001400  -0.022929  -0.053742
    16  H   -0.006293   0.060713  -0.023918   0.438259  -0.113716   0.007324
    17  H   -0.027629   0.009250  -0.005034  -0.061100   0.443942   0.013552
    18  H    0.000882   0.023729   0.164036  -0.014071   0.008450   0.180638
    19  H   -0.041863  -0.014086  -0.149185   0.008033   0.000027   0.564111
    20  H    0.131278   0.007449  -0.067651  -0.016940   0.010196  -0.021254
    21  H   -0.046081   0.032962   0.014371   0.014618  -0.004023   0.001380
    22  H    0.041843  -0.021200   0.007283  -0.052763   0.023144   0.000887
    23  H    0.001082   0.023445  -0.017049  -0.073929   0.079138   0.001736
    24  H    0.015553   0.000206  -0.057437   0.002696  -0.004694   0.035681
              13         14         15         16         17         18
     1  O    0.000134   0.001950  -0.047901   0.005188  -0.038186  -0.021152
     2  O   -0.064721  -0.017742  -0.005487  -0.000693   0.000873  -0.006615
     3  O   -0.009717  -0.058632  -0.001281  -0.012390  -0.001346  -0.000054
     4  O   -0.000629  -0.010366  -0.000011  -0.064474  -0.003607   0.000002
     5  O    0.000484  -0.000398   0.001830  -0.010796  -0.058154   0.000448
     6  O   -0.000098   0.000202   0.000451   0.000070  -0.000360  -0.041657
     7  C    0.545810   0.038660  -0.045783  -0.006293  -0.027629   0.000882
     8  C   -0.014162   0.530392   0.003207   0.060713   0.009250   0.023729
     9  C   -0.120193  -0.041854   0.455815  -0.023918  -0.005034   0.164036
    10  C   -0.028235  -0.142073   0.001400   0.438259  -0.061100  -0.014071
    11  C   -0.007125  -0.021461  -0.022929  -0.113716   0.443942   0.008450
    12  C    0.003126   0.007675  -0.053742   0.007324   0.013552   0.180638
    13  H    0.456889   0.003194   0.004383   0.001039   0.000034   0.003360
    14  H    0.003194   0.507717  -0.000405   0.005062   0.000636  -0.000025
    15  H    0.004383  -0.000405   0.508498  -0.000074   0.009036   0.007076
    16  H    0.001039   0.005062  -0.000074   0.516892   0.004871   0.000070
    17  H    0.000034   0.000636   0.009036   0.004871   0.512741  -0.000010
    18  H    0.003360  -0.000025   0.007076   0.000070  -0.000010   0.565409
    19  H   -0.000429  -0.000034  -0.007327   0.000002   0.000069  -0.039816
    20  H    0.005943   0.002584   0.001419  -0.000033  -0.000156   0.000201
    21  H   -0.001808  -0.005068   0.000013   0.000230  -0.000015  -0.000005
    22  H    0.000079   0.002322  -0.000071  -0.000914  -0.000236  -0.000002
    23  H    0.000027   0.000130  -0.000041   0.003709   0.007639  -0.000018
    24  H    0.000115  -0.000045   0.000454   0.000007   0.000524  -0.006044
              19         20         21         22         23         24
     1  O    0.016589   0.000469   0.000355   0.000001  -0.007217   0.029542
     2  O    0.018809   0.233721   0.020907  -0.000276  -0.000019   0.000218
     3  O    0.000170  -0.001509   0.238607   0.026012   0.000147  -0.000045
     4  O   -0.000010   0.000021   0.003393   0.231741  -0.006396  -0.000042
     5  O    0.000022   0.000016   0.000015  -0.001067   0.274814  -0.000506
     6  O   -0.055309  -0.000088  -0.000003   0.000002  -0.000020   0.261839
     7  C   -0.041863   0.131278  -0.046081   0.041843   0.001082   0.015553
     8  C   -0.014086   0.007449   0.032962  -0.021200   0.023445   0.000206
     9  C   -0.149185  -0.067651   0.014371   0.007283  -0.017049  -0.057437
    10  C    0.008033  -0.016940   0.014618  -0.052763  -0.073929   0.002696
    11  C    0.000027   0.010196  -0.004023   0.023144   0.079138  -0.004694
    12  C    0.564111  -0.021254   0.001380   0.000887   0.001736   0.035681
    13  H   -0.000429   0.005943  -0.001808   0.000079   0.000027   0.000115
    14  H   -0.000034   0.002584  -0.005068   0.002322   0.000130  -0.000045
    15  H   -0.007327   0.001419   0.000013  -0.000071  -0.000041   0.000454
    16  H    0.000002  -0.000033   0.000230  -0.000914   0.003709   0.000007
    17  H    0.000069  -0.000156  -0.000015  -0.000236   0.007639   0.000524
    18  H   -0.039816   0.000201  -0.000005  -0.000002  -0.000018  -0.006044
    19  H    0.509623  -0.001048  -0.000018  -0.000001   0.000002   0.006927
    20  H   -0.001048   0.474242  -0.002414  -0.000026  -0.000000  -0.000026
    21  H   -0.000018  -0.002414   0.465853  -0.000979  -0.000001  -0.000001
    22  H   -0.000001  -0.000026  -0.000979   0.487593   0.000829  -0.000000
    23  H    0.000002  -0.000000  -0.000001   0.000829   0.475719   0.000072
    24  H    0.006927  -0.000026  -0.000001  -0.000000   0.000072   0.464096
 Mulliken charges:
               1
     1  O   -0.114883
     2  O   -0.232423
     3  O   -0.254635
     4  O   -0.207482
     5  O   -0.210908
     6  O   -0.262448
     7  C   -0.302852
     8  C   -0.374440
     9  C   -0.288147
    10  C   -0.117597
    11  C   -0.027974
    12  C   -0.214429
    13  H    0.222501
    14  H    0.197579
    15  H    0.191470
    16  H    0.189863
    17  H    0.192666
    18  H    0.175169
    19  H    0.184742
    20  H    0.243605
    21  H    0.267713
    22  H    0.255798
    23  H    0.236200
    24  H    0.250911
 Sum of Mulliken charges =  -0.00000
 Mulliken charges with hydrogens summed into heavy atoms:
               1
     1  O   -0.114883
     2  O    0.011182
     3  O    0.013078
     4  O    0.048316
     5  O    0.025292
     6  O   -0.011537
     7  C   -0.080350
     8  C   -0.176861
     9  C   -0.096677
    10  C    0.072266
    11  C    0.164693
    12  C    0.145482
 APT charges:
               1
     1  O   -0.817029
     2  O   -0.606334
     3  O   -0.655996
     4  O   -0.626295
     5  O   -0.643031
     6  O   -0.636242
     7  C    0.363202
     8  C    0.376030
     9  C    0.377964
    10  C    0.374191
    11  C    0.926384
    12  C    0.465088
    13  H   -0.009334
    14  H   -0.066415
    15  H   -0.064416
    16  H   -0.062141
    17  H   -0.044106
    18  H   -0.051097
    19  H    0.004523
    20  H    0.254101
    21  H    0.288576
    22  H    0.288429
    23  H    0.275451
    24  H    0.288499
 Sum of APT charges =   0.00000
 APT charges with hydrogens summed into heavy atoms:
               1
     1  O   -0.817029
     2  O   -0.352234
     3  O   -0.367421
     4  O   -0.337866
     5  O   -0.367581
     6  O   -0.347742
     7  C    0.353869
     8  C    0.309615
     9  C    0.313548
    10  C    0.312050
    11  C    0.882277
    12  C    0.418514
 Electronic spatial extent (au):  <R**2>=           2193.2765
 Charge=             -0.0000 electrons
 Dipole moment (field-independent basis, Debye):
    X=              0.8301    Y=              2.4098    Z=             -0.2101  Tot=              2.5575
 Quadrupole moment (field-independent basis, Debye-Ang):
   XX=            -84.7812   YY=            -75.1265   ZZ=            -66.7927
   XY=              1.9904   XZ=             -1.3048   YZ=              8.0531
 Traceless Quadrupole moment (field-independent basis, Debye-Ang):
   XX=             -9.2144   YY=              0.4403   ZZ=              8.7741
   XY=              1.9904   XZ=             -1.3048   YZ=              8.0531
 Octapole moment (field-independent basis, Debye-Ang**2):
  XXX=             46.6895  YYY=             11.2296  ZZZ=              0.2872  XYY=             -2.8332
  XXY=             15.2260  XXZ=            -12.5594  XZZ=              0.0781  YZZ=             -0.7587
  YYZ=             -1.4098  XYZ=              4.9062
 Hexadecapole moment (field-independent basis, Debye-Ang**3):
 XXXX=          -1693.0406 YYYY=          -1012.6661 ZZZZ=           -140.0229 XXXY=             -2.1701
 XXXZ=             15.4589 YYYX=             69.7611 YYYZ=             61.5137 ZZZX=             -5.4823
 ZZZY=             16.9340 XXYY=           -415.6560 XXZZ=           -283.0366 YYZZ=           -159.1308
 XXYZ=             28.1044 YYXZ=            -24.4216 ZZXY=            -14.3382
 N-N= 8.281993408109D+02 E-N=-3.269692728362D+03  KE= 6.844627619025D+02
  Exact polarizability: 102.842  -1.504  98.802  -0.616   0.968  81.759
 Approx polarizability: 122.273  -2.624 127.720  -1.780   1.413 123.618
 No NMR shielding tensors so no spin-rotation constants.
 Leave Link  601 at Fri Nov  1 11:07:24 2024, MaxMem=  4294967296 cpu:               3.9 elap:               0.2
 (Enter /home/matma/Software/gaussian16.B01_files/AVX2/tar//g16/l701.exe)
 ... and contract with generalized density number  0.
 Compute integral second derivatives.
 R6Disp: Adding Grimme-D3 dispersion energy 2nd derivatives to the Hessian.
 Leave Link  701 at Fri Nov  1 11:07:24 2024, MaxMem=  4294967296 cpu:               5.2 elap:               0.2
 (Enter /home/matma/Software/gaussian16.B01_files/AVX2/tar//g16/l702.exe)
 L702 exits ... SP integral derivatives will be done elsewhere.
 Leave Link  702 at Fri Nov  1 11:07:24 2024, MaxMem=  4294967296 cpu:               0.3 elap:               0.0
 (Enter /home/matma/Software/gaussian16.B01_files/AVX2/tar//g16/l703.exe)
 Integral derivatives from FoFJK, PRISM(SPDF).
 Compute integral second derivatives, UseDBF=F ICtDFT=           0.
 Calling FoFJK, ICntrl=    100127 FMM=F ISym2X=0 I1Cent= 0 IOpClX= 0 NMat=1 NMatS=1 NMatT=0.
 FoFJK:  IHMeth= 1 ICntrl=  100127 DoSepK=F KAlg= 0 I1Cent=           0 FoldK=F
 IRaf=         0 NMat=       1 IRICut=       1 DoRegI=T DoRafI=F ISym2E= 0 IDoP0=0 IntGTp=1.
 FoFCou: FMM=F IPFlag=           0 FMFlag=      100000 FMFlg1=         800
         NFxFlg=           0 DoJE=F BraDBF=F KetDBF=F FulRan=T
         wScrn=  0.000000 ICntrl=    100127 IOpCl=  0 I1Cent=           0 NGrid=           0
         NMat0=    1 NMatS0=      1 NMatT0=    0 NMatD0=    1 NMtDS0=    0 NMtDT0=    0
 Symmetry not used in FoFCou.
 Leave Link  703 at Fri Nov  1 11:08:39 2024, MaxMem=  4294967296 cpu:            2104.9 elap:              75.2
 (Enter /home/matma/Software/gaussian16.B01_files/AVX2/tar//g16/l716.exe)
 Dipole        = 3.26605851D-01 9.48100064D-01-8.26710984D-02
 Polarizability= 1.02841703D+02-1.50370477D+00 9.88024398D+01
                -6.16182533D-01 9.68338484D-01 8.17589856D+01
 Full mass-weighted force constant matrix:
 Low frequencies ---   -8.8008   -3.9810   -0.0007   -0.0001    0.0004    3.1659
 Low frequencies ---   69.7358  102.8666  117.1834
 Diagonal vibrational polarizability:
      107.0985961      38.3031061      47.4250659
 Harmonic frequencies (cm**-1), IR intensities (KM/Mole), Raman scattering
 activities (A**4/AMU), depolarization ratios for plane and unpolarized
 incident light, reduced masses (AMU), force constants (mDyne/A),
 and normal coordinates:
                      1                      2                      3
                      A                      A                      A
 Frequencies --     69.7357               102.8661               117.1830
 Red. masses --      6.5929                 4.5656                 6.1787
 Frc consts  --      0.0189                 0.0285                 0.0500
 IR Inten    --      1.0633                 6.0226                 3.0572
  Atom  AN      X      Y      Z        X      Y      Z        X      Y      Z
     1   8     0.01   0.01  -0.11     0.02  -0.08   0.04    -0.06   0.03   0.13
     2   8    -0.02   0.02  -0.25    -0.05  -0.06  -0.06     0.05   0.09  -0.27
     3   8     0.02   0.01   0.10    -0.01   0.04   0.21     0.05   0.02   0.29
     4   8    -0.05   0.01   0.29     0.06   0.02  -0.18     0.01  -0.05  -0.23
     5   8     0.01   0.00  -0.27     0.10  -0.01   0.04    -0.09   0.01  -0.00
     6   8     0.02   0.03   0.29    -0.15   0.24   0.12     0.14  -0.20  -0.07
     7   6     0.01  -0.02  -0.11     0.01  -0.05  -0.03     0.03   0.01  -0.04
     8   6    -0.03   0.00   0.02    -0.02  -0.03   0.06    -0.02  -0.02   0.10
     9   6     0.03  -0.01  -0.05    -0.00  -0.06  -0.06    -0.01   0.08   0.07
    10   6     0.04   0.01   0.08     0.00   0.01  -0.04    -0.05   0.01  -0.04
    11   6    -0.01  -0.04  -0.11     0.06  -0.02   0.01    -0.02   0.01   0.04
    12   6    -0.03  -0.02   0.11     0.03  -0.03  -0.14    -0.03   0.00   0.08
    13   1     0.07  -0.13  -0.12     0.07  -0.06  -0.03     0.10  -0.16  -0.05
    14   1    -0.14   0.02   0.02    -0.10  -0.12   0.06    -0.12  -0.12   0.10
    15   1     0.12  -0.02  -0.05    -0.08   0.00  -0.06     0.02   0.15   0.07
    16   1     0.22   0.04   0.08    -0.09   0.05  -0.05    -0.20   0.07  -0.04
    17   1    -0.04  -0.19  -0.11     0.09   0.01   0.01     0.06   0.00   0.04
    18   1    -0.17  -0.10   0.10     0.08  -0.35  -0.13    -0.03   0.17   0.08
    19   1     0.02   0.01   0.10     0.16   0.12  -0.43    -0.16  -0.10   0.23
    20   1    -0.07   0.10  -0.26    -0.15  -0.07  -0.07    -0.08   0.24  -0.28
    21   1    -0.03   0.00   0.02    -0.08   0.02   0.20    -0.05   0.00   0.16
    22   1    -0.00  -0.01   0.35    -0.01   0.09  -0.12    -0.03  -0.00  -0.18
    23   1    -0.05   0.13  -0.29     0.07  -0.03   0.03    -0.16   0.01  -0.02
    24   1    -0.04   0.01   0.26    -0.36   0.10   0.26     0.34  -0.08  -0.08
                      4                      5                      6
                      A                      A                      A
 Frequencies --    145.0233               190.1403               239.7798
 Red. masses --      5.1357                 2.3086                 2.9471
 Frc consts  --      0.0636                 0.0492                 0.0998
 IR Inten    --      2.2492                 4.0396                39.2326
  Atom  AN      X      Y      Z        X      Y      Z        X      Y      Z
     1   8    -0.03  -0.07   0.29     0.01  -0.02  -0.10     0.03   0.02  -0.03
     2   8    -0.01  -0.01  -0.09    -0.03  -0.04  -0.08     0.19   0.01   0.00
     3   8    -0.06  -0.00  -0.11    -0.04   0.03   0.01    -0.16   0.15   0.05
     4   8     0.03   0.04   0.05     0.01  -0.03  -0.01     0.06   0.02   0.05
     5   8     0.05   0.01  -0.24     0.08  -0.00   0.06    -0.08  -0.05   0.06
     6   8    -0.10   0.08  -0.17    -0.07   0.05  -0.07    -0.06  -0.01  -0.01
     7   6    -0.00  -0.07   0.07    -0.00  -0.06   0.02    -0.00  -0.05  -0.01
     8   6     0.01   0.01   0.03     0.01  -0.01   0.02    -0.00  -0.06  -0.05
     9   6    -0.00  -0.02   0.18     0.02  -0.07   0.04    -0.02  -0.02   0.01
    10   6     0.01   0.01   0.06     0.01   0.00   0.00     0.09  -0.02  -0.07
    11   6     0.07  -0.06   0.05     0.00  -0.00  -0.02     0.04   0.01  -0.04
    12   6     0.06   0.04   0.01    -0.01   0.12   0.17    -0.03  -0.02   0.01
    13   1    -0.03  -0.20   0.06    -0.00  -0.14   0.01    -0.05  -0.05  -0.01
    14   1     0.08   0.08   0.02     0.02  -0.01   0.02    -0.02  -0.14  -0.04
    15   1    -0.06   0.09   0.18     0.12  -0.16   0.05    -0.01  -0.04   0.01
    16   1     0.01   0.01   0.06     0.01   0.03   0.00     0.17  -0.05  -0.07
    17   1     0.27  -0.25   0.06    -0.09   0.05  -0.03     0.08   0.08  -0.04
    18   1     0.23   0.08   0.01    -0.10   0.43   0.16    -0.02  -0.01   0.01
    19   1     0.07   0.06  -0.03     0.08   0.07   0.46    -0.02  -0.02   0.02
    20   1     0.04   0.12  -0.08     0.01   0.05  -0.07     0.34   0.06   0.02
    21   1    -0.11  -0.01  -0.21    -0.12   0.01  -0.09    -0.50   0.04  -0.11
    22   1     0.02   0.02  -0.03     0.03  -0.04  -0.01     0.07   0.01   0.07
    23   1    -0.37   0.17  -0.34     0.46  -0.01   0.15    -0.58  -0.21  -0.06
    24   1    -0.13   0.06  -0.11    -0.15   0.06  -0.30    -0.09  -0.02  -0.03
                      7                      8                      9
                      A                      A                      A
 Frequencies --    250.4515               266.5973               301.3972
 Red. masses --      2.2467                 3.3102                 4.4069
 Frc consts  --      0.0830                 0.1386                 0.2359
 IR Inten    --     17.4248                 6.2563                 3.2242
  Atom  AN      X      Y      Z        X      Y      Z        X      Y      Z
     1   8     0.02  -0.02  -0.01     0.00   0.02  -0.01    -0.12  -0.11   0.16
     2   8    -0.09  -0.05   0.01     0.19   0.09  -0.00     0.09  -0.05   0.08
     3   8     0.08  -0.07   0.04     0.03  -0.16   0.01     0.06   0.05   0.08
     4   8     0.04   0.18   0.01     0.04   0.21  -0.02    -0.14  -0.06   0.08
     5   8    -0.06  -0.07   0.04     0.03  -0.01  -0.04     0.18   0.08   0.02
     6   8     0.01   0.03  -0.03    -0.11  -0.04  -0.00    -0.01  -0.02  -0.02
     7   6    -0.01   0.00  -0.05    -0.04   0.02   0.00    -0.01   0.00  -0.16
     8   6    -0.02  -0.02  -0.05    -0.06  -0.07  -0.00    -0.02  -0.02  -0.19
     9   6     0.04  -0.01  -0.02    -0.06   0.00   0.02    -0.01   0.02  -0.05
    10   6     0.01  -0.02  -0.04    -0.03  -0.02   0.03    -0.03   0.01  -0.16
    11   6     0.02  -0.03  -0.01     0.00  -0.03   0.02     0.01   0.05  -0.04
    12   6     0.02   0.06   0.07    -0.08  -0.05   0.01    -0.05   0.04   0.04
    13   1    -0.04   0.04  -0.05    -0.06   0.01   0.00    -0.13   0.12  -0.15
    14   1    -0.06  -0.06  -0.05    -0.08  -0.06   0.00    -0.15  -0.14  -0.18
    15   1     0.10  -0.00  -0.01    -0.06  -0.01   0.02     0.05   0.20  -0.04
    16   1     0.04  -0.05  -0.04    -0.06  -0.05   0.03     0.10  -0.08  -0.15
    17   1     0.06  -0.01  -0.01    -0.05  -0.07   0.02     0.18   0.13  -0.04
    18   1    -0.05   0.21   0.06    -0.06  -0.06   0.01    -0.13   0.16   0.03
    19   1     0.06   0.04   0.21    -0.09  -0.05  -0.01    -0.04   0.01   0.16
    20   1    -0.10  -0.11   0.01     0.29   0.15   0.01     0.17  -0.23   0.08
    21   1     0.25  -0.03   0.22     0.13  -0.12  -0.00     0.14   0.04   0.35
    22   1    -0.11   0.31   0.09    -0.17   0.39   0.07    -0.10  -0.01   0.37
    23   1    -0.68  -0.20  -0.10     0.64   0.12   0.10     0.16   0.06   0.01
    24   1    -0.00   0.04  -0.11    -0.16  -0.05  -0.05     0.07   0.02   0.01
                     10                     11                     12
                      A                      A                      A
 Frequencies --    318.3273               328.9829               361.2407
 Red. masses --      2.8481                 1.2809                 2.8912
 Frc consts  --      0.1700                 0.0817                 0.2223
 IR Inten    --     18.0324                30.2140                80.2235
  Atom  AN      X      Y      Z        X      Y      Z        X      Y      Z
     1   8    -0.04  -0.04   0.04    -0.00  -0.03  -0.03    -0.02  -0.05  -0.07
     2   8     0.01  -0.05   0.03    -0.04   0.00   0.01     0.14   0.05  -0.00
     3   8    -0.12   0.04   0.02     0.04  -0.03   0.04    -0.12  -0.05  -0.06
     4   8    -0.02   0.10   0.00    -0.05   0.01  -0.01    -0.07   0.01  -0.04
     5   8    -0.08  -0.09  -0.03     0.06   0.01   0.01     0.18   0.02   0.02
     6   8     0.19   0.07   0.00     0.02   0.00   0.00     0.08   0.02   0.01
     7   6     0.01  -0.02  -0.04    -0.00   0.02   0.00     0.02  -0.01   0.03
     8   6    -0.06  -0.04  -0.02    -0.02   0.02   0.01    -0.05  -0.01   0.09
     9   6     0.05   0.02  -0.02     0.01  -0.01  -0.02    -0.00  -0.01  -0.06
    10   6    -0.05  -0.04   0.00    -0.05   0.01   0.02    -0.10   0.01   0.08
    11   6    -0.03  -0.08   0.01    -0.02  -0.01   0.01    -0.04  -0.04   0.04
    12   6     0.11   0.09  -0.03     0.02   0.00  -0.01     0.01   0.05  -0.01
    13   1    -0.00   0.02  -0.04    -0.02   0.03   0.00     0.12  -0.00   0.03
    14   1    -0.09  -0.06  -0.02    -0.03   0.02   0.02    -0.01   0.06   0.08
    15   1     0.04   0.07  -0.02     0.01  -0.03  -0.02    -0.02  -0.08  -0.06
    16   1    -0.06  -0.08   0.00    -0.07   0.02   0.02    -0.18   0.04   0.07
    17   1    -0.04  -0.10   0.01    -0.04  -0.03   0.01    -0.11  -0.10   0.03
    18   1     0.11   0.09  -0.04     0.00  -0.00  -0.01    -0.07   0.12  -0.02
    19   1     0.12   0.10  -0.03     0.04   0.01   0.00     0.03   0.04   0.07
    20   1     0.05  -0.10   0.03     0.75   0.21   0.10    -0.46  -0.07  -0.08
    21   1    -0.35  -0.01  -0.19    -0.17  -0.02  -0.47     0.03  -0.03   0.22
    22   1    -0.11   0.17   0.03    -0.00  -0.06  -0.15    -0.12   0.05  -0.03
    23   1     0.64   0.02   0.14    -0.25  -0.02  -0.06    -0.63  -0.03  -0.17
    24   1     0.33   0.11   0.14     0.02   0.01   0.01     0.14   0.05   0.04
                     13                     14                     15
                      A                      A                      A
 Frequencies --    393.7275               406.0040               426.7840
 Red. masses --      2.9775                 1.4938                 2.8338
 Frc consts  --      0.2719                 0.1451                 0.3041
 IR Inten    --     28.7314                80.5785                12.0862
  Atom  AN      X      Y      Z        X      Y      Z        X      Y      Z
     1   8     0.04   0.01  -0.04    -0.05  -0.02  -0.02    -0.07  -0.11  -0.01
     2   8    -0.04   0.14  -0.05     0.01  -0.07  -0.02     0.09  -0.04  -0.02
     3   8    -0.02  -0.01  -0.01     0.03   0.01  -0.03     0.06   0.13  -0.03
     4   8    -0.13  -0.03   0.02     0.01  -0.00  -0.05    -0.08   0.10   0.02
     5   8     0.03  -0.08   0.05    -0.03   0.06   0.01    -0.09  -0.02  -0.00
     6   8     0.02   0.03  -0.03     0.02  -0.00   0.01    -0.01  -0.02   0.02
     7   6    -0.06   0.06   0.10     0.04  -0.07   0.05     0.08  -0.04   0.01
     8   6    -0.04   0.00  -0.03     0.05   0.01   0.04     0.07   0.10   0.02
     9   6     0.05  -0.03   0.15    -0.01  -0.03   0.02     0.05  -0.09   0.01
    10   6    -0.05  -0.00  -0.13    -0.00   0.03   0.00    -0.07   0.07   0.02
    11   6     0.03  -0.03  -0.10    -0.05   0.05  -0.01    -0.09  -0.02  -0.01
    12   6     0.14  -0.06   0.01     0.00  -0.00  -0.02     0.06  -0.07   0.01
    13   1    -0.15  -0.04   0.10     0.07  -0.11   0.04     0.10  -0.06   0.01
    14   1     0.04  -0.11  -0.02     0.09   0.04   0.04     0.12   0.13   0.01
    15   1     0.07  -0.15   0.15    -0.05  -0.07   0.02     0.07  -0.11   0.01
    16   1     0.04   0.05  -0.13    -0.02   0.09  -0.00    -0.10   0.07   0.02
    17   1     0.10   0.06  -0.10    -0.06   0.07  -0.01    -0.12  -0.02  -0.00
    18   1     0.35  -0.21   0.02     0.03  -0.04  -0.02     0.08  -0.11   0.01
    19   1     0.11  -0.01  -0.20    -0.01   0.00  -0.05     0.08  -0.05  -0.03
    20   1     0.05   0.33  -0.03     0.13   0.01  -0.00     0.16  -0.00  -0.01
    21   1     0.19   0.01   0.33    -0.01   0.01  -0.12     0.27   0.14   0.40
    22   1    -0.14   0.07   0.36    -0.24   0.41   0.79     0.03  -0.12  -0.47
    23   1     0.06  -0.22   0.06    -0.06   0.05  -0.00     0.08  -0.00   0.04
    24   1    -0.01  -0.01   0.10     0.04   0.00   0.05    -0.30  -0.08  -0.35
                     16                     17                     18
                      A                      A                      A
 Frequencies --    430.8004               438.5071               459.3793
 Red. masses --      1.2924                 1.7720                 2.0013
 Frc consts  --      0.1413                 0.2008                 0.2488
 IR Inten    --    210.9592                11.2539                96.3460
  Atom  AN      X      Y      Z        X      Y      Z        X      Y      Z
     1   8    -0.00   0.02  -0.01    -0.05   0.00  -0.02    -0.01  -0.07  -0.01
     2   8    -0.02  -0.05  -0.03     0.03  -0.05  -0.01    -0.00   0.06   0.01
     3   8    -0.07  -0.02  -0.03     0.05  -0.05   0.02     0.04   0.10  -0.02
     4   8     0.04  -0.01   0.00    -0.04   0.08   0.05     0.03  -0.02  -0.02
     5   8     0.00   0.03  -0.00    -0.00   0.05   0.02     0.00  -0.11  -0.01
     6   8     0.02   0.01  -0.01    -0.01   0.00  -0.03    -0.10  -0.02  -0.05
     7   6    -0.01  -0.04   0.01     0.02  -0.06   0.07     0.02   0.06  -0.02
     8   6    -0.01  -0.03   0.01     0.03  -0.03   0.02     0.03   0.08   0.01
     9   6    -0.03   0.01   0.01    -0.03  -0.02   0.06     0.01  -0.01  -0.05
    10   6     0.03  -0.00   0.02     0.01   0.03  -0.08    -0.00   0.00   0.05
    11   6    -0.00   0.02   0.00    -0.01   0.06  -0.08    -0.00  -0.09   0.01
    12   6    -0.02   0.03  -0.02    -0.01   0.01  -0.00    -0.05   0.00   0.03
    13   1     0.00  -0.07   0.01     0.00  -0.13   0.06     0.04   0.10  -0.01
    14   1     0.01  -0.03   0.02     0.09  -0.10   0.01     0.03   0.14   0.00
    15   1    -0.06  -0.01   0.00    -0.04  -0.08   0.06     0.07  -0.01  -0.04
    16   1     0.03  -0.00   0.02     0.09   0.07  -0.08    -0.03   0.01   0.05
    17   1    -0.02   0.02   0.00     0.02   0.14  -0.08    -0.04  -0.14   0.01
    18   1    -0.02   0.03  -0.02     0.07  -0.02  -0.00    -0.10   0.09   0.03
    19   1    -0.01   0.03  -0.00    -0.03   0.02  -0.06    -0.01  -0.01   0.12
    20   1     0.54   0.12   0.04    -0.30  -0.07  -0.05     0.01   0.05   0.01
    21   1     0.30   0.02   0.64    -0.09  -0.05  -0.28     0.04   0.09   0.02
    22   1     0.06  -0.06  -0.14     0.10  -0.15  -0.40    -0.04   0.09   0.17
    23   1     0.01   0.05  -0.00    -0.00  -0.04   0.03     0.05  -0.10   0.00
    24   1     0.21   0.05   0.27     0.35   0.05   0.57     0.39   0.05   0.78
                     19                     20                     21
                      A                      A                      A
 Frequencies --    499.1774               574.3756               612.9693
 Red. masses --      3.3860                 3.4991                 5.3613
 Frc consts  --      0.4971                 0.6801                 1.1868
 IR Inten    --     14.6858                56.6149                 3.8748
  Atom  AN      X      Y      Z        X      Y      Z        X      Y      Z
     1   8     0.13   0.08  -0.06     0.11  -0.06   0.09     0.14   0.23   0.02
     2   8     0.06  -0.08   0.02     0.03  -0.01   0.01    -0.04  -0.17  -0.03
     3   8    -0.01  -0.01   0.04    -0.09  -0.12  -0.03    -0.01   0.07  -0.03
     4   8    -0.06  -0.03  -0.04    -0.10  -0.02  -0.00    -0.21   0.07  -0.00
     5   8    -0.06   0.12  -0.03    -0.12  -0.00   0.01     0.08  -0.11  -0.01
     6   8    -0.08   0.01  -0.07    -0.04  -0.01  -0.01    -0.09  -0.05   0.00
     7   6    -0.04  -0.03  -0.13     0.05   0.02  -0.04     0.19  -0.02   0.04
     8   6    -0.07   0.01  -0.09    -0.06   0.04   0.17     0.12  -0.06   0.05
     9   6     0.11  -0.04   0.06     0.07  -0.04  -0.14     0.03   0.19  -0.00
    10   6    -0.07  -0.00   0.08    -0.00   0.15  -0.04    -0.11  -0.07  -0.06
    11   6    -0.03   0.05   0.13     0.15   0.08  -0.07     0.03  -0.08   0.04
    12   6     0.14  -0.08   0.10     0.01  -0.02   0.01    -0.10   0.01  -0.01
    13   1    -0.18  -0.03  -0.13     0.28   0.11  -0.04     0.39  -0.07   0.03
    14   1    -0.25   0.08  -0.08    -0.08   0.09   0.17     0.32  -0.18   0.05
    15   1     0.31  -0.03   0.07     0.08   0.08  -0.13     0.00   0.27  -0.00
    16   1    -0.19  -0.14   0.08     0.03   0.47  -0.05    -0.21  -0.15  -0.06
    17   1    -0.13  -0.01   0.13     0.34   0.17  -0.06     0.08  -0.15   0.04
    18   1     0.28  -0.10   0.10    -0.21   0.16   0.00    -0.10  -0.05  -0.01
    19   1     0.17  -0.04   0.01     0.13  -0.03   0.25    -0.22  -0.03  -0.06
    20   1    -0.05  -0.25   0.00     0.14  -0.04   0.02     0.12  -0.14  -0.01
    21   1    -0.03  -0.01  -0.00     0.09  -0.05  -0.07    -0.13   0.01   0.11
    22   1    -0.07  -0.01   0.01     0.06  -0.11   0.10    -0.23   0.08   0.01
    23   1    -0.10   0.29  -0.04     0.13  -0.11   0.07     0.07  -0.09  -0.01
    24   1     0.08  -0.03   0.44    -0.03  -0.02   0.10    -0.04  -0.03   0.02
                     22                     23                     24
                      A                      A                      A
 Frequencies --    641.8137               648.5616               903.3782
 Red. masses --      2.8593                 3.7926                 1.9658
 Frc consts  --      0.6940                 0.9399                 0.9452
 IR Inten    --      7.2079                 9.7516                33.4586
  Atom  AN      X      Y      Z        X      Y      Z        X      Y      Z
     1   8     0.11  -0.09   0.00    -0.13  -0.05   0.01    -0.02   0.12   0.07
     2   8    -0.03   0.09  -0.02    -0.10   0.07   0.01     0.01  -0.02  -0.01
     3   8     0.02   0.04   0.01    -0.12  -0.05  -0.01     0.02   0.02  -0.00
     4   8    -0.07   0.02   0.02     0.08   0.03   0.03     0.02  -0.00   0.00
     5   8    -0.07   0.10  -0.04     0.02   0.10   0.01     0.04  -0.02   0.01
     6   8     0.02   0.01   0.02    -0.09  -0.04  -0.03     0.01   0.02   0.00
     7   6     0.01   0.01   0.12     0.16   0.11  -0.03    -0.04  -0.01   0.03
     8   6     0.07  -0.08  -0.06     0.07  -0.12   0.05    -0.01  -0.00  -0.00
     9   6    -0.02  -0.12  -0.09     0.15   0.07  -0.07    -0.02  -0.03  -0.06
    10   6    -0.02  -0.09  -0.08     0.03  -0.10  -0.04    -0.01  -0.02   0.02
    11   6     0.04   0.03   0.15    -0.12   0.03  -0.03    -0.09   0.01  -0.07
    12   6    -0.03   0.01  -0.05     0.10  -0.08   0.09     0.12  -0.12  -0.05
    13   1     0.03   0.04   0.12     0.39   0.27  -0.02    -0.05  -0.02   0.03
    14   1     0.25  -0.27  -0.06     0.17  -0.27   0.06     0.01   0.02  -0.00
    15   1    -0.20  -0.21  -0.10     0.38   0.18  -0.05    -0.30   0.07  -0.06
    16   1    -0.09  -0.35  -0.07     0.08  -0.14  -0.04     0.03   0.00   0.02
    17   1     0.07   0.05   0.15    -0.15   0.10  -0.03    -0.10  -0.03  -0.07
    18   1    -0.29   0.23  -0.06     0.17  -0.14   0.09    -0.27   0.36  -0.07
    19   1     0.13   0.00   0.24     0.07  -0.08  -0.01     0.39  -0.17   0.52
    20   1    -0.07   0.27  -0.02     0.05   0.09   0.03    -0.02   0.04  -0.01
    21   1    -0.10  -0.02   0.08    -0.21  -0.10   0.08     0.02   0.02  -0.01
    22   1    -0.08   0.03  -0.01    -0.03   0.09  -0.06    -0.05   0.04  -0.04
    23   1     0.02   0.33  -0.02    -0.03   0.10  -0.00     0.01  -0.14  -0.00
    24   1     0.05   0.02   0.08    -0.15  -0.10   0.10    -0.22  -0.14   0.20
                     25                     26                     27
                      A                      A                      A
 Frequencies --   1006.7666              1026.6604              1037.3862
 Red. masses --      3.4457                 3.7260                 3.6997
 Frc consts  --      2.0577                 2.3139                 2.3459
 IR Inten    --     95.5111                81.5776                 3.6726
  Atom  AN      X      Y      Z        X      Y      Z        X      Y      Z
     1   8    -0.08   0.03  -0.05     0.07  -0.04   0.06     0.05  -0.01   0.02
     2   8     0.03  -0.10  -0.03     0.03  -0.11  -0.03    -0.06   0.10   0.03
     3   8    -0.06  -0.07   0.04    -0.04  -0.02   0.04    -0.07  -0.10   0.05
     4   8     0.04  -0.00   0.01     0.06  -0.04   0.01    -0.05   0.03  -0.05
     5   8     0.02  -0.09  -0.02    -0.01   0.06   0.01     0.01  -0.05  -0.01
     6   8    -0.02  -0.02   0.01    -0.05  -0.05   0.03    -0.01  -0.02   0.03
     7   6     0.02   0.05   0.13     0.09   0.06   0.18     0.15  -0.06  -0.06
     8   6    -0.06   0.11  -0.09    -0.12   0.11  -0.14     0.16  -0.03  -0.18
     9   6     0.04   0.06  -0.05     0.18   0.02   0.00     0.06  -0.03   0.11
    10   6     0.05   0.16  -0.17    -0.08  -0.09   0.07     0.05   0.19   0.11
    11   6    -0.03  -0.06   0.21    -0.05   0.03  -0.15    -0.11   0.03  -0.02
    12   6     0.05  -0.01  -0.00    -0.06   0.09  -0.09    -0.04   0.03  -0.11
    13   1     0.02   0.06   0.13    -0.07   0.08   0.18    -0.21  -0.13  -0.05
    14   1    -0.01  -0.13  -0.07    -0.27   0.20  -0.13    -0.03  -0.01  -0.16
    15   1    -0.04   0.04  -0.05     0.14  -0.08   0.00    -0.11  -0.13   0.10
    16   1     0.07   0.00  -0.16     0.02  -0.26   0.08     0.02   0.24   0.10
    17   1    -0.14  -0.06   0.20     0.00   0.02  -0.14    -0.25  -0.13  -0.02
    18   1    -0.03   0.05  -0.01    -0.18   0.02  -0.09    -0.20   0.20  -0.12
    19   1     0.02  -0.05   0.08    -0.15   0.04  -0.09    -0.05  -0.05   0.12
    20   1    -0.07   0.21  -0.04    -0.12   0.38  -0.04    -0.00  -0.07   0.04
    21   1     0.26   0.08  -0.15     0.20   0.09  -0.11    -0.36  -0.24   0.23
    22   1     0.43  -0.24   0.25    -0.22   0.15  -0.15     0.26  -0.16   0.16
    23   1    -0.04   0.42  -0.04     0.02  -0.29   0.03     0.00  -0.10  -0.01
    24   1    -0.08  -0.06   0.04     0.07   0.02  -0.04    -0.03  -0.03   0.05
                     28                     29                     30
                      A                      A                      A
 Frequencies --   1068.1918              1088.3009              1098.8274
 Red. masses --      2.6211                 3.8337                 2.8817
 Frc consts  --      1.7621                 2.6753                 2.0500
 IR Inten    --     15.5051               178.7416               153.7418
  Atom  AN      X      Y      Z        X      Y      Z        X      Y      Z
     1   8    -0.06   0.01  -0.00    -0.19   0.00  -0.12    -0.06   0.12   0.04
     2   8     0.01  -0.06  -0.02    -0.02   0.02   0.01    -0.01   0.06   0.02
     3   8     0.05   0.01  -0.01    -0.03  -0.02   0.02     0.00   0.00  -0.00
     4   8    -0.05   0.01  -0.04    -0.05  -0.00  -0.02    -0.01   0.00  -0.00
     5   8    -0.01   0.00   0.00    -0.04   0.07   0.01     0.01  -0.00   0.00
     6   8    -0.01  -0.00  -0.02    -0.03  -0.03   0.03    -0.12  -0.15   0.06
     7   6    -0.11  -0.02   0.11     0.13   0.01  -0.00     0.02  -0.08  -0.02
     8   6     0.04  -0.13  -0.09    -0.01   0.05  -0.06    -0.02   0.01   0.01
     9   6     0.02   0.06  -0.15    -0.01   0.05   0.09     0.03  -0.15  -0.08
    10   6     0.02   0.09   0.15     0.01  -0.06   0.08     0.02  -0.01  -0.02
    11   6     0.10   0.01  -0.02     0.32  -0.05   0.03     0.01  -0.02   0.01
    12   6     0.04  -0.01   0.08     0.09  -0.00  -0.09     0.11   0.18  -0.01
    13   1    -0.22   0.22   0.12     0.05  -0.14  -0.01     0.08  -0.07  -0.02
    14   1     0.10  -0.05  -0.10    -0.15   0.20  -0.06    -0.06   0.02   0.01
    15   1     0.17   0.20  -0.14    -0.32   0.00   0.08    -0.16  -0.11  -0.08
    16   1    -0.06   0.15   0.14    -0.09  -0.25   0.09     0.03  -0.02  -0.02
    17   1     0.05  -0.10  -0.02     0.36  -0.02   0.02    -0.04  -0.06   0.01
    18   1     0.09  -0.18   0.08    -0.02   0.31  -0.09     0.08  -0.21   0.01
    19   1     0.04   0.05  -0.11    -0.02  -0.17   0.26     0.51   0.42  -0.24
    20   1    -0.12   0.51  -0.02     0.05  -0.14   0.01     0.01  -0.04   0.02
    21   1    -0.34  -0.17   0.22    -0.02  -0.02   0.03     0.05   0.03  -0.02
    22   1     0.08  -0.07   0.05    -0.12   0.04  -0.04     0.01  -0.01   0.00
    23   1     0.02  -0.19   0.01     0.02  -0.11   0.03    -0.00  -0.04  -0.00
    24   1     0.03   0.02  -0.05    -0.24  -0.17   0.14     0.39   0.17  -0.24
                     31                     32                     33
                      A                      A                      A
 Frequencies --   1130.0721              1132.1524              1149.4451
 Red. masses --      3.8611                 2.6750                 3.5188
 Frc consts  --      2.9052                 2.0202                 2.7392
 IR Inten    --     46.5135               101.1962               123.5955
  Atom  AN      X      Y      Z        X      Y      Z        X      Y      Z
     1   8     0.07  -0.13  -0.05     0.06  -0.06  -0.01     0.06  -0.10  -0.01
     2   8     0.01  -0.04  -0.01     0.02  -0.10  -0.05    -0.01   0.02   0.02
     3   8     0.08   0.07  -0.06    -0.03  -0.03   0.02    -0.06  -0.03   0.04
     4   8     0.01   0.00   0.01     0.04  -0.01   0.01    -0.14   0.03  -0.07
     5   8    -0.01   0.02   0.01    -0.00  -0.02  -0.01     0.02  -0.08  -0.02
     6   8    -0.10  -0.13   0.09    -0.02  -0.03   0.01    -0.02  -0.02  -0.00
     7   6    -0.10   0.05  -0.02     0.02   0.22  -0.02     0.00  -0.10   0.03
     8   6    -0.05  -0.14   0.10     0.06   0.01  -0.05     0.05   0.09  -0.01
     9   6     0.05   0.18   0.09    -0.18   0.01   0.04    -0.09   0.15  -0.06
    10   6     0.00   0.00  -0.03    -0.08   0.04   0.04     0.23  -0.11   0.07
    11   6    -0.06  -0.04   0.01    -0.01   0.06  -0.03    -0.06   0.13  -0.01
    12   6     0.13   0.14  -0.16     0.08   0.03   0.06     0.08   0.01   0.07
    13   1    -0.36  -0.09  -0.01     0.18   0.34  -0.02    -0.07  -0.13   0.03
    14   1    -0.09  -0.09   0.09     0.19  -0.11  -0.04    -0.11   0.29  -0.01
    15   1    -0.04   0.20   0.06    -0.58  -0.15   0.02    -0.24   0.20  -0.07
    16   1     0.06   0.44  -0.05    -0.14  -0.10   0.05     0.32  -0.29   0.06
    17   1    -0.02   0.09   0.02     0.06  -0.00  -0.02    -0.10   0.26  -0.01
    18   1     0.05   0.40  -0.15     0.18  -0.08   0.08     0.13  -0.06   0.08
    19   1     0.01  -0.00   0.12     0.28   0.15  -0.04     0.10   0.05  -0.03
    20   1    -0.02   0.00  -0.01     0.03  -0.21  -0.05    -0.05   0.11   0.02
    21   1    -0.16  -0.04   0.08    -0.13  -0.08   0.05     0.32   0.15  -0.19
    22   1     0.05  -0.02   0.01     0.01   0.01   0.01    -0.19   0.06  -0.08
    23   1    -0.03   0.27   0.00     0.03  -0.16  -0.00    -0.00   0.18  -0.04
    24   1    -0.11  -0.13   0.07     0.12   0.06  -0.08    -0.04  -0.04   0.01
                     34                     35                     36
                      A                      A                      A
 Frequencies --   1163.8775              1177.2497              1179.9291
 Red. masses --      2.5817                 3.4616                 1.4710
 Frc consts  --      2.0605                 2.8266                 1.2066
 IR Inten    --     23.5874                40.8626               130.0059
  Atom  AN      X      Y      Z        X      Y      Z        X      Y      Z
     1   8     0.00  -0.03  -0.01    -0.07   0.06   0.02    -0.02   0.02  -0.01
     2   8     0.01   0.03   0.01     0.04  -0.10  -0.05    -0.01   0.00   0.01
     3   8    -0.06  -0.06   0.05    -0.05  -0.04   0.02     0.01  -0.00  -0.00
     4   8     0.08  -0.02   0.05    -0.09   0.02  -0.04     0.05  -0.03   0.03
     5   8    -0.00  -0.00  -0.01     0.01  -0.02   0.00     0.02  -0.10  -0.02
     6   8    -0.02  -0.02   0.01     0.00   0.00   0.02     0.00   0.00  -0.01
     7   6    -0.13  -0.08  -0.01    -0.13   0.21  -0.04     0.05  -0.02   0.00
     8   6     0.18   0.13   0.02     0.16   0.05   0.09     0.02  -0.01  -0.03
     9   6     0.04   0.09  -0.07     0.10  -0.13   0.05    -0.00  -0.02  -0.01
    10   6    -0.14   0.01  -0.05     0.14  -0.09   0.02    -0.09  -0.03  -0.01
    11   6     0.03   0.03  -0.01     0.03   0.00   0.01     0.00   0.08   0.03
    12   6     0.04   0.02  -0.01    -0.05   0.01  -0.09    -0.00  -0.00   0.01
    13   1    -0.45  -0.36  -0.02    -0.48   0.33  -0.03    -0.08   0.05   0.01
    14   1     0.47  -0.01   0.02     0.22   0.16   0.10    -0.18   0.29  -0.04
    15   1     0.14   0.18  -0.07     0.30  -0.26   0.07    -0.02  -0.10  -0.01
    16   1    -0.32  -0.22  -0.03     0.21  -0.01   0.00     0.01   0.35  -0.02
    17   1     0.13  -0.01  -0.00    -0.06   0.13   0.01     0.28   0.48   0.04
    18   1    -0.02   0.01  -0.01    -0.13   0.09  -0.10     0.00  -0.04   0.01
    19   1     0.01   0.01  -0.01    -0.02  -0.00   0.02     0.00   0.01  -0.01
    20   1     0.05  -0.16   0.01     0.02  -0.03  -0.05    -0.03   0.15   0.01
    21   1     0.03  -0.02  -0.00    -0.09  -0.06   0.05    -0.22  -0.11   0.14
    22   1    -0.11   0.10  -0.05    -0.16   0.06  -0.07    -0.25   0.16  -0.17
    23   1     0.02  -0.17  -0.00    -0.03   0.21  -0.01    -0.04   0.40  -0.05
    24   1    -0.02  -0.02   0.00     0.08   0.06  -0.05    -0.01  -0.01   0.01
                     37                     38                     39
                      A                      A                      A
 Frequencies --   1205.5692              1226.4181              1248.3226
 Red. masses --      1.7770                 1.4255                 1.3865
 Frc consts  --      1.5216                 1.2633                 1.2730
 IR Inten    --     25.3029                 1.8049                32.2346
  Atom  AN      X      Y      Z        X      Y      Z        X      Y      Z
     1   8    -0.02   0.01   0.01     0.02   0.00  -0.01     0.02   0.03   0.03
     2   8     0.00   0.01   0.00     0.00  -0.02   0.02     0.00   0.01  -0.01
     3   8     0.02   0.02  -0.01    -0.01  -0.02   0.01    -0.01  -0.02   0.02
     4   8     0.00  -0.01  -0.00     0.01   0.01   0.02    -0.01  -0.01  -0.01
     5   8     0.02  -0.10  -0.04    -0.00   0.03   0.00    -0.00   0.04   0.02
     6   8    -0.00  -0.03   0.03     0.00  -0.01   0.02     0.01  -0.02   0.01
     7   6    -0.05  -0.01  -0.01     0.00  -0.07  -0.06    -0.03  -0.00   0.02
     8   6    -0.05  -0.03  -0.00     0.07   0.04   0.02     0.01   0.03  -0.06
     9   6    -0.01  -0.06   0.01    -0.08  -0.04   0.04    -0.04  -0.03  -0.07
    10   6    -0.01   0.05   0.06    -0.01  -0.02  -0.06    -0.00  -0.01   0.01
    11   6     0.02   0.16   0.01    -0.01  -0.03   0.00    -0.02  -0.08  -0.00
    12   6     0.01   0.06  -0.06     0.01   0.02  -0.03     0.03   0.07   0.02
    13   1     0.35   0.09  -0.01     0.12   0.51  -0.04     0.18  -0.01   0.01
    14   1     0.20  -0.34   0.00    -0.16   0.30   0.02     0.22   0.07  -0.07
    15   1     0.37  -0.03   0.03     0.14   0.24   0.05    -0.02  -0.17  -0.07
    16   1    -0.15  -0.39   0.08    -0.18  -0.06  -0.07     0.36   0.33  -0.01
    17   1    -0.03   0.20   0.01    -0.02  -0.13  -0.00     0.08  -0.14   0.01
    18   1     0.26   0.26  -0.06     0.22   0.17  -0.03     0.40   0.15   0.03
    19   1    -0.22  -0.08   0.02    -0.02  -0.02   0.05    -0.40  -0.12  -0.05
    20   1     0.01  -0.03   0.00    -0.15   0.55   0.02     0.05  -0.16  -0.01
    21   1     0.09   0.06  -0.07    -0.04  -0.03   0.03    -0.00  -0.01  -0.00
    22   1     0.01  -0.01   0.01     0.07  -0.03   0.04    -0.17   0.09  -0.10
    23   1     0.01  -0.06  -0.04     0.02  -0.12   0.01    -0.00   0.06   0.02
    24   1    -0.18  -0.14   0.12    -0.06  -0.05   0.04    -0.28  -0.20   0.18
                     40                     41                     42
                      A                      A                      A
 Frequencies --   1254.3750              1276.3914              1323.0384
 Red. masses --      1.2537                 1.1988                 1.2127
 Frc consts  --      1.1622                 1.1507                 1.2507
 IR Inten    --     28.1760                11.0893                 1.0175
  Atom  AN      X      Y      Z        X      Y      Z        X      Y      Z
     1   8     0.00  -0.01  -0.03     0.01  -0.01   0.00    -0.01   0.01  -0.01
     2   8     0.00   0.00   0.01     0.00   0.01  -0.01    -0.00   0.00  -0.00
     3   8    -0.02  -0.00   0.02     0.03  -0.02   0.01    -0.01   0.01   0.00
     4   8     0.00  -0.03  -0.00    -0.00   0.02  -0.01    -0.01   0.01  -0.01
     5   8    -0.01   0.01   0.01     0.00   0.00   0.01     0.01   0.01  -0.01
     6   8    -0.01   0.00   0.01    -0.01  -0.00   0.01    -0.01  -0.00   0.01
     7   6    -0.02  -0.03  -0.01    -0.06   0.01   0.05     0.02   0.01   0.02
     8   6    -0.00   0.01  -0.05    -0.04   0.03  -0.03     0.02  -0.03  -0.00
     9   6    -0.03   0.01   0.07    -0.01   0.02   0.01    -0.06   0.05  -0.02
    10   6    -0.02   0.03   0.05     0.01  -0.03  -0.02     0.01  -0.00   0.01
    11   6     0.02  -0.04  -0.00    -0.01  -0.02  -0.02    -0.08   0.01   0.04
    12   6    -0.02  -0.04  -0.04    -0.01  -0.02  -0.02    -0.01  -0.03  -0.03
    13   1     0.23   0.12  -0.01     0.43  -0.15   0.04    -0.05  -0.06   0.01
    14   1     0.31  -0.27  -0.05     0.20   0.49  -0.06    -0.13   0.04   0.00
    15   1     0.21   0.34   0.08     0.23   0.13   0.02     0.42  -0.37  -0.01
    16   1     0.34   0.23   0.04    -0.02  -0.11  -0.02     0.05   0.01   0.02
    17   1     0.03   0.02  -0.00    -0.04   0.11  -0.03     0.66  -0.15   0.08
    18   1    -0.13   0.02  -0.04    -0.01   0.05  -0.02     0.10   0.12  -0.03
    19   1     0.31   0.08   0.07     0.16   0.04   0.03     0.23   0.06   0.04
    20   1    -0.04   0.08   0.00     0.08  -0.24  -0.00     0.01  -0.04  -0.00
    21   1     0.19   0.10  -0.12    -0.35  -0.20   0.21     0.11   0.06  -0.06
    22   1    -0.26   0.14  -0.15     0.20  -0.11   0.11     0.09  -0.05   0.04
    23   1    -0.03   0.17   0.01    -0.02   0.10  -0.00     0.06  -0.20   0.01
    24   1     0.19   0.13  -0.12     0.09   0.06  -0.06     0.08   0.05  -0.06
                     43                     44                     45
                      A                      A                      A
 Frequencies --   1331.5879              1340.9790              1363.1766
 Red. masses --      1.3800                 1.2722                 1.3561
 Frc consts  --      1.4416                 1.3479                 1.4848
 IR Inten    --     43.8220                20.3387                 1.7132
  Atom  AN      X      Y      Z        X      Y      Z        X      Y      Z
     1   8     0.01   0.02   0.02     0.00   0.01  -0.01     0.01   0.00   0.03
     2   8     0.00   0.00  -0.00     0.00  -0.01   0.02    -0.00  -0.00  -0.00
     3   8    -0.03   0.01   0.02     0.02  -0.01  -0.02     0.01  -0.01  -0.02
     4   8    -0.00   0.04  -0.01    -0.00   0.01  -0.03     0.01  -0.01  -0.01
     5   8    -0.00   0.01   0.03     0.00   0.00   0.01    -0.01  -0.00   0.02
     6   8     0.00  -0.00   0.00     0.00  -0.00  -0.01    -0.01   0.00   0.02
     7   6     0.01  -0.01  -0.01    -0.02  -0.02  -0.05     0.06   0.02   0.03
     8   6     0.02  -0.01  -0.02    -0.01   0.05   0.05     0.02   0.04   0.03
     9   6    -0.01  -0.01  -0.01     0.04  -0.00   0.02    -0.07   0.01  -0.05
    10   6    -0.02  -0.05   0.07    -0.05   0.04   0.03    -0.04   0.03   0.00
    11   6     0.00  -0.09  -0.10    -0.04  -0.04  -0.02     0.05  -0.04  -0.04
    12   6    -0.00   0.01   0.01     0.01   0.02   0.01    -0.04  -0.04  -0.01
    13   1    -0.08   0.09  -0.00     0.03   0.02  -0.05    -0.28  -0.18   0.03
    14   1     0.13  -0.11  -0.02     0.03  -0.17   0.06    -0.30  -0.23   0.05
    15   1    -0.02  -0.03  -0.01    -0.21  -0.00   0.00     0.22   0.00  -0.03
    16   1    -0.37   0.08   0.05     0.52  -0.48   0.06     0.22  -0.22   0.01
    17   1     0.17   0.37  -0.10     0.40   0.09  -0.00    -0.34   0.07  -0.06
    18   1     0.06   0.01   0.01    -0.16  -0.11   0.01     0.49   0.25  -0.01
    19   1    -0.02   0.00  -0.01    -0.10  -0.02  -0.03     0.16   0.02   0.08
    20   1    -0.01  -0.00  -0.00    -0.05   0.20   0.01     0.01  -0.03   0.00
    21   1     0.28   0.15  -0.15    -0.22  -0.12   0.12    -0.15  -0.08   0.09
    22   1     0.41  -0.22   0.23     0.14  -0.07   0.07    -0.02   0.01  -0.00
    23   1    -0.06   0.44   0.00    -0.01   0.13   0.01    -0.04   0.22   0.00
    24   1    -0.03  -0.02   0.02    -0.05  -0.04   0.04     0.11   0.08  -0.07
                     46                     47                     48
                      A                      A                      A
 Frequencies --   1389.7774              1397.1023              1399.7554
 Red. masses --      1.3933                 1.2469                 1.4200
 Frc consts  --      1.5856                 1.4340                 1.6393
 IR Inten    --     36.9131                18.3883                 8.0542
  Atom  AN      X      Y      Z        X      Y      Z        X      Y      Z
     1   8     0.01   0.00  -0.02    -0.00   0.00  -0.02    -0.00   0.00   0.02
     2   8    -0.00   0.00  -0.02     0.00   0.01  -0.00    -0.00  -0.02   0.03
     3   8     0.00   0.00  -0.00    -0.00   0.00   0.01     0.01  -0.00   0.01
     4   8    -0.00   0.01  -0.01    -0.00   0.01  -0.01     0.00   0.00  -0.01
     5   8     0.00   0.00  -0.01     0.01   0.00  -0.02     0.00   0.00  -0.01
     6   8     0.04  -0.02  -0.02    -0.03   0.02   0.03     0.00  -0.00  -0.00
     7   6     0.07   0.05   0.05     0.01   0.00   0.00     0.09   0.01  -0.08
     8   6    -0.03   0.00   0.01    -0.03  -0.02   0.00    -0.12   0.01   0.02
     9   6    -0.06  -0.10  -0.00     0.07  -0.05  -0.02    -0.04   0.03  -0.01
    10   6    -0.01  -0.03   0.01    -0.00  -0.02   0.01    -0.01  -0.03  -0.00
    11   6    -0.02   0.01   0.03    -0.04   0.02   0.04     0.02   0.02   0.01
    12   6    -0.01   0.05   0.01    -0.03  -0.05  -0.00     0.00  -0.00   0.00
    13   1    -0.35  -0.05   0.06    -0.13   0.01   0.00    -0.28  -0.18  -0.09
    14   1     0.01  -0.01   0.01     0.19   0.09  -0.01     0.70   0.14  -0.03
    15   1     0.21   0.64   0.02    -0.34   0.35  -0.03     0.09  -0.30  -0.01
    16   1     0.11   0.06   0.01     0.07   0.06   0.01     0.08   0.08  -0.00
    17   1     0.14   0.05   0.03     0.19   0.15   0.05    -0.18  -0.02   0.01
    18   1    -0.10  -0.12   0.02     0.45   0.21  -0.01     0.01   0.01  -0.00
    19   1     0.13   0.16  -0.09    -0.18  -0.17   0.12     0.08   0.04  -0.00
    20   1     0.04  -0.19  -0.02     0.01  -0.03  -0.00    -0.11   0.38   0.02
    21   1    -0.01  -0.01   0.02     0.05   0.03  -0.02    -0.05  -0.03   0.03
    22   1     0.12  -0.06   0.06     0.10  -0.06   0.05     0.09  -0.05   0.05
    23   1     0.02  -0.16  -0.00     0.03  -0.25  -0.01     0.01  -0.09  -0.00
    24   1    -0.31  -0.24   0.19     0.32   0.25  -0.19    -0.04  -0.03   0.02
                     49                     50                     51
                      A                      A                      A
 Frequencies --   1422.2457              1426.1524              1437.9526
 Red. masses --      1.2789                 1.3684                 1.7135
 Frc consts  --      1.5242                 1.6398                 2.0875
 IR Inten    --     32.9987                28.8142                 7.7120
  Atom  AN      X      Y      Z        X      Y      Z        X      Y      Z
     1   8     0.00  -0.00   0.01     0.00  -0.00   0.01     0.00   0.00   0.00
     2   8    -0.01   0.03  -0.05     0.00  -0.00   0.01    -0.01   0.00   0.00
     3   8     0.01   0.00   0.00    -0.02   0.01   0.01    -0.03   0.02   0.02
     4   8     0.00  -0.00  -0.00     0.00   0.02  -0.02     0.01  -0.02   0.01
     5   8    -0.00  -0.00  -0.00     0.00   0.02  -0.05    -0.01  -0.01   0.02
     6   8    -0.00  -0.00  -0.00    -0.00   0.00  -0.00     0.01  -0.00  -0.00
     7   6     0.03  -0.10   0.04    -0.03   0.01  -0.01     0.01   0.04  -0.01
     8   6    -0.04  -0.01   0.02     0.07  -0.04  -0.01     0.02  -0.18   0.01
     9   6     0.01   0.05   0.01    -0.02   0.01   0.00     0.01  -0.02  -0.00
    10   6    -0.03   0.01  -0.01    -0.10  -0.03   0.01    -0.03   0.14  -0.02
    11   6     0.02   0.00   0.01     0.04  -0.02   0.06     0.01  -0.03  -0.03
    12   6     0.00  -0.01  -0.00     0.03   0.01  -0.00    -0.03   0.01   0.00
    13   1    -0.28   0.75   0.10     0.14  -0.09  -0.02    -0.07  -0.13  -0.01
    14   1     0.15   0.11   0.01    -0.19   0.11  -0.00     0.11   0.64  -0.04
    15   1     0.02  -0.19   0.01     0.10  -0.13   0.01    -0.05   0.08  -0.00
    16   1     0.17  -0.11   0.01     0.42   0.09   0.02     0.11  -0.46   0.01
    17   1    -0.11   0.04   0.00    -0.33   0.49   0.05     0.00  -0.05  -0.04
    18   1    -0.04  -0.02  -0.00    -0.15  -0.03  -0.00     0.08   0.01   0.00
    19   1     0.05   0.01   0.02    -0.06  -0.03  -0.03     0.07   0.06  -0.01
    20   1     0.11  -0.42  -0.04    -0.01   0.05   0.01    -0.00   0.02   0.00
    21   1    -0.00   0.00   0.00     0.19   0.10  -0.10     0.30   0.17  -0.17
    22   1     0.03  -0.01   0.02     0.23  -0.12   0.12    -0.15   0.08  -0.09
    23   1     0.00  -0.03  -0.00     0.04  -0.41  -0.02    -0.02   0.21   0.01
    24   1     0.00   0.00  -0.00     0.01   0.01  -0.01    -0.07  -0.05   0.04
                     52                     53                     54
                      A                      A                      A
 Frequencies --   1440.7217              1467.1259              1495.0704
 Red. masses --      1.4960                 1.6456                 1.0861
 Frc consts  --      1.8295                 2.0869                 1.4304
 IR Inten    --     36.6965                49.0539                 2.4353
  Atom  AN      X      Y      Z        X      Y      Z        X      Y      Z
     1   8    -0.01  -0.01  -0.01     0.01   0.01   0.01     0.00  -0.00   0.00
     2   8     0.00  -0.00   0.00    -0.00  -0.00  -0.00     0.00  -0.00   0.00
     3   8     0.00  -0.00  -0.00     0.01  -0.01  -0.01    -0.00  -0.00  -0.00
     4   8    -0.00   0.00  -0.00    -0.01  -0.03   0.02    -0.00  -0.00   0.00
     5   8     0.00   0.01  -0.01     0.00   0.04  -0.03    -0.00   0.00  -0.00
     6   8     0.04  -0.02  -0.01    -0.00  -0.00  -0.00    -0.00   0.01  -0.01
     7   6    -0.05  -0.02  -0.01     0.02   0.00  -0.00    -0.00   0.00   0.00
     8   6     0.01   0.01  -0.00    -0.03   0.02   0.00     0.00  -0.00  -0.00
     9   6     0.10   0.04   0.01    -0.03   0.01  -0.00    -0.01   0.01  -0.00
    10   6     0.00  -0.01   0.00     0.11   0.10   0.00     0.00   0.00  -0.00
    11   6     0.00  -0.01   0.02    -0.05  -0.15   0.03    -0.00  -0.00   0.00
    12   6    -0.15   0.00   0.00     0.02   0.00   0.00    -0.02   0.06  -0.05
    13   1     0.15   0.03  -0.02    -0.05   0.01   0.00     0.00  -0.02  -0.00
    14   1    -0.01  -0.06   0.00     0.07  -0.10   0.01    -0.00   0.00   0.00
    15   1    -0.30  -0.11   0.00     0.07  -0.05  -0.00     0.06  -0.02  -0.00
    16   1    -0.00   0.07  -0.00    -0.32  -0.17   0.00    -0.00  -0.00  -0.00
    17   1    -0.02   0.13   0.02     0.05   0.72   0.04    -0.00   0.02   0.00
    18   1     0.39   0.04   0.02    -0.05   0.01   0.00     0.21  -0.66  -0.00
    19   1     0.55   0.35   0.00    -0.02  -0.01  -0.03     0.01  -0.18   0.69
    20   1    -0.02   0.05   0.00    -0.00   0.00  -0.00    -0.01   0.00  -0.00
    21   1    -0.01  -0.01   0.00    -0.11  -0.06   0.05    -0.00  -0.00   0.00
    22   1     0.01  -0.01   0.01    -0.31   0.16  -0.16    -0.01   0.00  -0.00
    23   1     0.01  -0.13  -0.00     0.03  -0.31  -0.01     0.00  -0.01  -0.00
    24   1    -0.33  -0.26   0.20    -0.01  -0.01   0.00    -0.00   0.00  -0.01
                     55                     56                     57
                      A                      A                      A
 Frequencies --   2953.3586              2961.4289              2979.2293
 Red. masses --      1.0813                 1.0810                 1.0830
 Frc consts  --      5.5569                 5.5859                 5.6635
 IR Inten    --      5.0198                38.0466                45.7879
  Atom  AN      X      Y      Z        X      Y      Z        X      Y      Z
     1   8     0.00  -0.00  -0.00     0.00  -0.00  -0.00     0.00  -0.00   0.00
     2   8     0.00   0.00  -0.00    -0.00   0.00   0.00     0.00   0.00   0.00
     3   8    -0.00  -0.00   0.00     0.00   0.00  -0.00     0.00   0.00   0.00
     4   8    -0.00   0.00  -0.00     0.00  -0.00   0.00    -0.00   0.00  -0.00
     5   8     0.00   0.00   0.00     0.00  -0.00   0.00     0.00   0.00   0.00
     6   8    -0.00  -0.00   0.00    -0.00  -0.00   0.00    -0.00  -0.00   0.00
     7   6    -0.00  -0.00   0.00     0.00  -0.00   0.00     0.00  -0.00   0.00
     8   6     0.00   0.00   0.05    -0.00  -0.01  -0.06    -0.00  -0.00  -0.03
     9   6     0.00   0.00  -0.06     0.00   0.00  -0.05     0.00   0.00  -0.01
    10   6     0.00  -0.00  -0.01    -0.00   0.00   0.02     0.00  -0.00  -0.08
    11   6    -0.00  -0.00  -0.00    -0.00   0.00   0.00    -0.00  -0.00   0.01
    12   6     0.00   0.00   0.01     0.00   0.00   0.01     0.00   0.00   0.00
    13   1    -0.00  -0.00  -0.01    -0.00   0.00  -0.07     0.00   0.00  -0.06
    14   1    -0.02  -0.03  -0.61     0.03   0.04   0.72     0.01   0.02   0.29
    15   1    -0.03  -0.01   0.77    -0.02  -0.01   0.62    -0.00  -0.00   0.07
    16   1    -0.00   0.00   0.14     0.00  -0.01  -0.28    -0.02   0.04   0.94
    17   1     0.01  -0.00   0.00     0.01  -0.00  -0.03     0.00  -0.00  -0.14
    18   1     0.00  -0.00  -0.09     0.00  -0.00  -0.08     0.00  -0.00  -0.02
    19   1    -0.00  -0.01  -0.00    -0.00  -0.01  -0.00    -0.00   0.00   0.00
    20   1     0.00   0.00   0.00    -0.00   0.01   0.01    -0.00   0.00   0.00
    21   1    -0.00  -0.00   0.00     0.00   0.00  -0.00    -0.00   0.00   0.00
    22   1     0.00   0.00   0.00     0.00  -0.00  -0.00    -0.01  -0.00  -0.00
    23   1    -0.00   0.00  -0.00    -0.00  -0.00  -0.00    -0.00   0.01   0.01
    24   1    -0.00   0.00  -0.00    -0.00   0.00  -0.00    -0.00  -0.00  -0.00
                     58                     59                     60
                      A                      A                      A
 Frequencies --   3012.9652              3040.1566              3084.9554
 Red. masses --      1.0706                 1.0862                 1.0858
 Frc consts  --      5.7263                 5.9151                 6.0885
 IR Inten    --     47.7862                40.6093                19.9161
  Atom  AN      X      Y      Z        X      Y      Z        X      Y      Z
     1   8     0.00  -0.00   0.00    -0.00   0.00  -0.00    -0.00   0.00   0.00
     2   8     0.00   0.00   0.00     0.00   0.00   0.00     0.00  -0.00   0.00
     3   8    -0.00   0.00   0.00     0.00   0.00   0.00    -0.00  -0.00   0.00
     4   8    -0.00  -0.00   0.00     0.00   0.00   0.00    -0.00   0.00   0.00
     5   8    -0.00   0.00  -0.00     0.00  -0.00   0.00    -0.00  -0.00   0.00
     6   8     0.00   0.00  -0.00    -0.00  -0.00   0.00     0.00   0.00   0.00
     7   6    -0.00  -0.00   0.00     0.00  -0.00   0.00    -0.00   0.01  -0.08
     8   6    -0.00  -0.00  -0.00     0.00  -0.00  -0.01     0.00   0.00  -0.01
     9   6     0.00  -0.00  -0.01     0.00  -0.00  -0.00    -0.00  -0.00  -0.01
    10   6     0.00  -0.00  -0.00    -0.00  -0.00  -0.01    -0.00  -0.00  -0.00
    11   6    -0.00   0.00   0.00     0.01  -0.00  -0.08     0.00  -0.00  -0.00
    12   6    -0.01   0.01  -0.07    -0.00   0.00   0.00    -0.00   0.00  -0.00
    13   1    -0.00  -0.00  -0.05     0.00   0.00  -0.04     0.03  -0.05   0.99
    14   1     0.00   0.00   0.01     0.00   0.01   0.07     0.01   0.00   0.06
    15   1    -0.00  -0.00   0.11    -0.01   0.01   0.03    -0.01  -0.00   0.06
    16   1    -0.00   0.00   0.01    -0.01   0.00   0.12    -0.00   0.00   0.04
    17   1     0.00  -0.00  -0.01    -0.04  -0.00   0.98    -0.00  -0.00   0.03
    18   1    -0.03   0.04   0.96     0.00  -0.00   0.00     0.00   0.00   0.03
    19   1     0.09  -0.19  -0.08     0.00  -0.00  -0.00     0.01  -0.03  -0.01
    20   1     0.00   0.00   0.00    -0.00   0.00   0.00    -0.00   0.01  -0.01
    21   1     0.00  -0.00  -0.00     0.00   0.00  -0.00    -0.00   0.00  -0.00
    22   1    -0.00  -0.00  -0.00     0.00  -0.00   0.00    -0.00  -0.00  -0.00
    23   1    -0.00   0.00   0.00     0.00   0.01  -0.01    -0.00   0.00   0.00
    24   1     0.00   0.01   0.00     0.00   0.00  -0.00    -0.00   0.00  -0.00
                     61                     62                     63
                      A                      A                      A
 Frequencies --   3129.0053              3849.9948              3855.7752
 Red. masses --      1.0940                 1.0661                 1.0659
 Frc consts  --      6.3106                 9.3105                 9.3367
 IR Inten    --     14.3757                35.6074                48.4306
  Atom  AN      X      Y      Z        X      Y      Z        X      Y      Z
     1   8    -0.00   0.00   0.00     0.00   0.00  -0.00    -0.00  -0.00  -0.00
     2   8    -0.00  -0.00   0.00     0.01   0.00  -0.06    -0.00  -0.00   0.00
     3   8     0.00  -0.00   0.00     0.00  -0.01  -0.00     0.00  -0.00  -0.00
     4   8     0.00   0.00   0.00     0.00   0.00  -0.00     0.00   0.00  -0.00
     5   8     0.00  -0.00   0.00     0.00   0.00  -0.00     0.00  -0.00  -0.00
     6   8    -0.00   0.00   0.00     0.00   0.00  -0.00     0.03  -0.05  -0.01
     7   6     0.00  -0.00  -0.00    -0.00   0.00  -0.00     0.00  -0.00   0.00
     8   6    -0.00   0.00  -0.00     0.00   0.00   0.00    -0.00   0.00  -0.00
     9   6    -0.00  -0.00  -0.00    -0.00  -0.00   0.00     0.00   0.00   0.00
    10   6    -0.00  -0.00  -0.00    -0.00  -0.00   0.00    -0.00   0.00  -0.00
    11   6    -0.00   0.00  -0.00     0.00  -0.00   0.00     0.00  -0.00   0.00
    12   6     0.03  -0.07  -0.04    -0.00  -0.00  -0.00     0.00  -0.00  -0.00
    13   1    -0.00  -0.00   0.02     0.00  -0.00   0.01    -0.00   0.00  -0.00
    14   1     0.00   0.00   0.00     0.00  -0.00  -0.00     0.00  -0.00  -0.00
    15   1     0.00   0.00   0.04    -0.00  -0.00  -0.00    -0.00  -0.00  -0.00
    16   1    -0.00   0.00   0.00    -0.00   0.00  -0.00    -0.00  -0.00  -0.00
    17   1     0.00  -0.00   0.00    -0.00   0.00  -0.00    -0.00   0.00  -0.00
    18   1     0.00  -0.00   0.20     0.00   0.00   0.00     0.00   0.00  -0.00
    19   1    -0.41   0.84   0.27    -0.00   0.00   0.00    -0.00   0.01   0.00
    20   1     0.00   0.00  -0.00    -0.12  -0.02   0.98     0.00  -0.00  -0.00
    21   1     0.00   0.00  -0.00    -0.05   0.13   0.02    -0.00   0.01   0.00
    22   1     0.00   0.00  -0.00    -0.01  -0.01   0.00    -0.02  -0.02   0.01
    23   1    -0.00   0.00  -0.00    -0.00   0.00   0.01    -0.01   0.00   0.03
    24   1     0.01  -0.01  -0.01    -0.00   0.00   0.00    -0.45   0.87   0.19
                     64                     65                     66
                      A                      A                      A
 Frequencies --   3859.0937              3859.7906              3864.9073
 Red. masses --      1.0661                 1.0661                 1.0658
 Frc consts  --      9.3548                 9.3582                 9.3798
 IR Inten    --     72.4732                49.7383                38.5602
  Atom  AN      X      Y      Z        X      Y      Z        X      Y      Z
     1   8     0.00  -0.00   0.00    -0.00  -0.00   0.00    -0.00   0.00   0.00
     2   8     0.00  -0.00  -0.00    -0.00  -0.00   0.01    -0.00   0.00   0.00
     3   8     0.00  -0.01  -0.00     0.02  -0.06  -0.01    -0.00   0.00   0.00
     4   8    -0.04  -0.05   0.01     0.00   0.01  -0.00    -0.00  -0.00   0.00
     5   8    -0.00   0.00   0.00     0.00   0.00  -0.00     0.01  -0.00  -0.06
     6   8     0.00  -0.00  -0.00    -0.00   0.00   0.00    -0.00   0.00   0.00
     7   6    -0.00  -0.00   0.00     0.00   0.00   0.00    -0.00  -0.00   0.00
     8   6     0.00   0.00  -0.00     0.00  -0.00  -0.00     0.00   0.00  -0.00
     9   6    -0.00   0.00   0.00     0.00  -0.00  -0.00    -0.00  -0.00  -0.00
    10   6    -0.00  -0.00   0.00     0.00   0.00   0.00    -0.00   0.00   0.00
    11   6     0.00   0.00  -0.00    -0.00  -0.00  -0.00     0.00   0.00  -0.00
    12   6     0.00  -0.00  -0.00    -0.00   0.00  -0.00    -0.00   0.00   0.00
    13   1     0.00   0.00   0.00    -0.00  -0.00  -0.00    -0.00   0.00  -0.00
    14   1    -0.00   0.00   0.00     0.00   0.00  -0.00    -0.00   0.00  -0.00
    15   1    -0.00  -0.00  -0.00     0.00   0.00   0.00    -0.00   0.00   0.00
    16   1     0.00  -0.00   0.00    -0.00   0.00  -0.00    -0.00  -0.00  -0.00
    17   1     0.00   0.00  -0.00    -0.00  -0.00   0.00    -0.00  -0.00   0.01
    18   1     0.00   0.00  -0.00     0.00  -0.00   0.00    -0.00  -0.00  -0.00
    19   1    -0.00   0.00   0.00     0.00  -0.00  -0.00    -0.00  -0.00  -0.00
    20   1    -0.00   0.00   0.00     0.02   0.00  -0.14     0.00   0.00  -0.01
    21   1    -0.04   0.10   0.02    -0.34   0.91   0.14     0.00  -0.00  -0.00
    22   1     0.60   0.76  -0.20    -0.06  -0.08   0.02     0.01   0.01  -0.00
    23   1     0.00  -0.00  -0.02    -0.00   0.00   0.00    -0.23   0.03   0.97
    24   1    -0.01   0.02   0.00     0.01  -0.01  -0.00     0.01  -0.02  -0.01

 -------------------
 - Thermochemistry -
 -------------------
 Temperature   298.150 Kelvin.  Pressure   1.00000 Atm.
 Atom     1 has atomic number  8 and mass  15.99491
 Atom     2 has atomic number  8 and mass  15.99491
 Atom     3 has atomic number  8 and mass  15.99491
 Atom     4 has atomic number  8 and mass  15.99491
 Atom     5 has atomic number  8 and mass  15.99491
 Atom     6 has atomic number  8 and mass  15.99491
 Atom     7 has atomic number  6 and mass  12.00000
 Atom     8 has atomic number  6 and mass  12.00000
 Atom     9 has atomic number  6 and mass  12.00000
 Atom    10 has atomic number  6 and mass  12.00000
 Atom    11 has atomic number  6 and mass  12.00000
 Atom    12 has atomic number  6 and mass  12.00000
 Atom    13 has atomic number  1 and mass   1.00783
 Atom    14 has atomic number  1 and mass   1.00783
 Atom    15 has atomic number  1 and mass   1.00783
 Atom    16 has atomic number  1 and mass   1.00783
 Atom    17 has atomic number  1 and mass   1.00783
 Atom    18 has atomic number  1 and mass   1.00783
 Atom    19 has atomic number  1 and mass   1.00783
 Atom    20 has atomic number  1 and mass   1.00783
 Atom    21 has atomic number  1 and mass   1.00783
 Atom    22 has atomic number  1 and mass   1.00783
 Atom    23 has atomic number  1 and mass   1.00783
 Atom    24 has atomic number  1 and mass   1.00783
 Molecular mass:   180.06339 amu.
 Principal axes and moments of inertia in atomic units:
                           1         2         3
     Eigenvalues --  1539.756052268.992773641.00225
           X            1.00000  -0.00201   0.00089
           Y            0.00200   0.99996   0.00822
           Z           -0.00091  -0.00822   0.99997
 This molecule is an asymmetric top.
 Rotational symmetry number  1.
 Warning -- assumption of classical behavior for rotation
           may cause significant error
 Rotational temperatures (Kelvin)      0.05625     0.03817     0.02379
 Rotational constants (GHZ):           1.17210     0.79539     0.49567
 Zero-point vibrational energy     522065.2 (Joules/Mol)
                                  124.77658 (Kcal/Mol)
 Warning -- explicit consideration of  21 degrees of freedom as
           vibrations may cause significant error
 Vibrational temperatures:    100.33   148.00   168.60   208.66   273.57
          (Kelvin)            344.99   360.34   383.57   433.64   458.00
                              473.33   519.74   566.49   584.15   614.05
                              619.83   630.91   660.94   718.20   826.40
                              881.93   923.43   933.14  1299.76  1448.51
                             1477.14  1492.57  1536.89  1565.82  1580.97
                             1625.92  1628.91  1653.80  1674.56  1693.80
                             1697.65  1734.55  1764.54  1796.06  1804.77
                             1836.44  1903.56  1915.86  1929.37  1961.31
                             1999.58  2010.12  2013.94  2046.29  2051.92
                             2068.89  2072.88  2110.87  2151.07  4249.22
                             4260.84  4286.45  4334.98  4374.11  4438.56
                             4501.94  5539.28  5547.60  5552.38  5553.38
                             5560.74
 
 Zero-point correction=                           0.198844 (Hartree/Particle)
 Thermal correction to Energy=                    0.211194
 Thermal correction to Enthalpy=                  0.212138
 Thermal correction to Gibbs Free Energy=         0.161197
 Sum of electronic and zero-point Energies=           -686.462980
 Sum of electronic and thermal Energies=              -686.450631
 Sum of electronic and thermal Enthalpies=            -686.449686
 Sum of electronic and thermal Free Energies=         -686.500627
 
                     E (Thermal)             CV                S
                      KCal/Mol        Cal/Mol-Kelvin    Cal/Mol-Kelvin
 Total                  132.526             47.159            107.214
 Electronic               0.000              0.000              0.000
 Translational            0.889              2.981             41.471
 Rotational               0.889              2.981             30.921
 Vibrational            130.749             41.197             34.823
 Vibration     1          0.598              1.969              4.161
 Vibration     2          0.605              1.947              3.399
 Vibration     3          0.608              1.935              3.146
 Vibration     4          0.616              1.908              2.737
 Vibration     5          0.633              1.853              2.226
 Vibration     6          0.657              1.780              1.805
 Vibration     7          0.663              1.762              1.727
 Vibration     8          0.672              1.734              1.618
 Vibration     9          0.693              1.671              1.409
 Vibration    10          0.705              1.639              1.319
 Vibration    11          0.712              1.618              1.265
 Vibration    12          0.735              1.552              1.117
 Vibration    13          0.761              1.484              0.986
 Vibration    14          0.771              1.457              0.941
 Vibration    15          0.788              1.412              0.869
 Vibration    16          0.792              1.403              0.856
 Vibration    17          0.799              1.386              0.831
 Vibration    18          0.817              1.340              0.768
 Vibration    19          0.855              1.252              0.660
 Vibration    20          0.931              1.087              0.496
 Vibration    21          0.972              1.004              0.428
                       Q            Log10(Q)             Ln(Q)
 Total Bot       0.715559D-74        -74.145354       -170.725988
 Total V=0       0.207261D+18         17.316517         39.872753
 Vib (Bot)       0.590140D-88        -88.229045       -203.154884
 Vib (Bot)    1  0.295760D+01          0.470939          1.084377
 Vib (Bot)    2  0.199397D+01          0.299719          0.690129
 Vib (Bot)    3  0.174504D+01          0.241805          0.556778
 Vib (Bot)    4  0.140016D+01          0.146177          0.336584
 Vib (Bot)    5  0.105254D+01          0.022238          0.051205
 Vib (Bot)    6  0.817835D+00         -0.087334         -0.201095
 Vib (Bot)    7  0.779112D+00         -0.108400         -0.249601
 Vib (Bot)    8  0.726169D+00         -0.138962         -0.319972
 Vib (Bot)    9  0.630486D+00         -0.200325         -0.461264
 Vib (Bot)   10  0.591121D+00         -0.228324         -0.525735
 Vib (Bot)   11  0.568305D+00         -0.245418         -0.565097
 Vib (Bot)   12  0.506972D+00         -0.295016         -0.679300
 Vib (Bot)   13  0.454758D+00         -0.342220         -0.787991
 Vib (Bot)   14  0.437063D+00         -0.359456         -0.827678
 Vib (Bot)   15  0.409281D+00         -0.387978         -0.893353
 Vib (Bot)   16  0.404200D+00         -0.393403         -0.905845
 Vib (Bot)   17  0.394694D+00         -0.403740         -0.929645
 Vib (Bot)   18  0.370446D+00         -0.431276         -0.993049
 Vib (Bot)   19  0.329488D+00         -0.482161         -1.110216
 Vib (Bot)   20  0.266793D+00         -0.573826         -1.321283
 Vib (Bot)   21  0.240346D+00         -0.619164         -1.425678
 Vib (V=0)       0.170933D+04          3.232826          7.443857
 Vib (V=0)    1  0.349956D+01          0.544014          1.252638
 Vib (V=0)    2  0.255571D+01          0.407511          0.938329
 Vib (V=0)    3  0.231526D+01          0.364600          0.839522
 Vib (V=0)    4  0.198675D+01          0.298144          0.686503
 Vib (V=0)    5  0.166526D+01          0.221483          0.509983
 Vib (V=0)    6  0.145857D+01          0.163927          0.377455
 Vib (V=0)    7  0.142575D+01          0.154044          0.354699
 Vib (V=0)    8  0.138166D+01          0.140401          0.323285
 Vib (V=0)    9  0.130468D+01          0.115505          0.265959
 Vib (V=0)   10  0.127422D+01          0.105246          0.242338
 Vib (V=0)   11  0.125695D+01          0.099317          0.228687
 Vib (V=0)   12  0.121205D+01          0.083522          0.192316
 Vib (V=0)   13  0.117587D+01          0.070360          0.162011
 Vib (V=0)   14  0.116410D+01          0.065989          0.151945
 Vib (V=0)   15  0.114615D+01          0.059242          0.136409
 Vib (V=0)   16  0.114294D+01          0.058025          0.133608
 Vib (V=0)   17  0.113701D+01          0.055765          0.128403
 Vib (V=0)   18  0.112228D+01          0.050100          0.115361
 Vib (V=0)   19  0.109880D+01          0.040919          0.094219
 Vib (V=0)   20  0.106673D+01          0.028053          0.064594
 Vib (V=0)   21  0.105477D+01          0.023156          0.053319
 Electronic      0.100000D+01          0.000000          0.000000
 Translational   0.949712D+08          7.977592         18.369084
 Rotational      0.127673D+07          6.106099         14.059812
 
                                                               OPT+FREQ
                                                             IR Spectrum
 
  33333                      3333222                                  111111111111111111111111111111                                 
  88888                      1000999                                  444444433333322222111111000000   9    6665444444333332221111   
  66555                      2841765                                  964322099643275420876433986320   0    44179533209621065494107  
  50960                      9503913                                  571862070312364866074920988777   3    92349991764198170005730  
 
  XXXXX                      XXXXXXX                                  XXXXXXXXXXXXXXXXXXXXXXXXXXXXXX   X    XXXXXXXXXXXXXXXXXXXXXXX  
  XXXXX                       XXXXX                                    XX XX XX XX  XX XXXXXXXXX  XX   X       X X X XXXXX  XX       
  XXXXX                        XXXX                                    XX XX  X  X  XX  XX XXXXX  XX   X       X X X XXXX    X       
  XXXX                         XXXX                                    X         X      XX XXXXX  XX           X X X X X     X       
   XXX                          X                                      X                X  XX XX  XX           X X X X X             
    X                                                                                   X  XX XX  XX             X X X X             
    X                                                                                   X  XX XX  XX             X X X X             
                                                                                        X  XX XX  XX             X X X X             
                                                                                        X  XX XX   X             X X                 
                                                                                        X  XX XX                   X                 
                                                                                        X  X  XX                   X                 
                                                                                        X  X  XX                   X                 
                                                                                              XX                   X                 
                                                                                              XX                   X                 
                                                                                              XX                   X                 
                                                                                               X                   X                 
                                                                                               X                   X                 
                                                                                                                   X                 
                                                                                                                   X                 
                                                                                                                   X                 
 
 ***** Axes restored to original set *****
 -------------------------------------------------------------------
 Center     Atomic                   Forces (Hartrees/Bohr)
 Number     Number              X              Y              Z
 -------------------------------------------------------------------
      1        8          -0.000021028   -0.000001928   -0.000003513
      2        8           0.000003903   -0.000001288   -0.000001226
      3        8          -0.000005913   -0.000006346   -0.000028846
      4        8          -0.000000085    0.000005193    0.000030375
      5        8           0.000006199   -0.000001283   -0.000004340
      6        8          -0.000000554   -0.000003421    0.000001209
      7        6          -0.000005970   -0.000002844   -0.000013573
      8        6           0.000011170    0.000003347    0.000047044
      9        6          -0.000001220    0.000004215    0.000004895
     10        6          -0.000001870   -0.000012508   -0.000018251
     11        6           0.000006304    0.000008634    0.000001752
     12        6          -0.000002666    0.000000282   -0.000001868
     13        1           0.000001130    0.000000190   -0.000002389
     14        1          -0.000012468   -0.000016178   -0.000008127
     15        1           0.000000560    0.000001624   -0.000000214
     16        1           0.000001481    0.000000340   -0.000004080
     17        1           0.000003323    0.000008442    0.000005934
     18        1           0.000000963   -0.000003077   -0.000001487
     19        1           0.000000789   -0.000001455   -0.000001809
     20        1          -0.000001020    0.000000811   -0.000001241
     21        1          -0.000000480   -0.000000067    0.000009327
     22        1           0.000019918    0.000020137   -0.000011160
     23        1          -0.000003068   -0.000001017    0.000002802
     24        1           0.000000601   -0.000001802   -0.000001215
 -------------------------------------------------------------------
 Cartesian Forces:  Max     0.000047044 RMS     0.000010094
 FormGI is forming the generalized inverse of G from B-inverse, IUseBI=4.
 Leave Link  716 at Fri Nov  1 11:08:39 2024, MaxMem=  4294967296 cpu:               0.7 elap:               0.0
 (Enter /home/matma/Software/gaussian16.B01_files/AVX2/tar//g16/l103.exe)

 GradGradGradGradGradGradGradGradGradGradGradGradGradGradGradGradGradGrad
 Berny optimization.
 Red2BG is reusing G-inverse.
 Internal  Forces:  Max     0.000053025 RMS     0.000008671
 Search for a local minimum.
 Step number   1 out of a maximum of    2
 All quantities printed in internal units (Hartrees-Bohrs-Radians)
 Second derivative matrix not updated -- analytic derivatives used.
 ITU=  0
     Eigenvalues ---    0.00261   0.00326   0.00358   0.00412   0.00474
     Eigenvalues ---    0.00653   0.00830   0.00845   0.00985   0.02284
     Eigenvalues ---    0.02418   0.03761   0.04383   0.04835   0.04934
     Eigenvalues ---    0.05213   0.05346   0.05594   0.05798   0.06000
     Eigenvalues ---    0.06305   0.06417   0.06614   0.06666   0.07123
     Eigenvalues ---    0.08810   0.09269   0.10414   0.10575   0.12643
     Eigenvalues ---    0.14344   0.14789   0.15885   0.15992   0.16595
     Eigenvalues ---    0.17447   0.17613   0.18205   0.19970   0.20758
     Eigenvalues ---    0.21411   0.23720   0.25182   0.25463   0.27282
     Eigenvalues ---    0.28501   0.29934   0.30295   0.30788   0.31160
     Eigenvalues ---    0.31291   0.32087   0.32846   0.33444   0.34468
     Eigenvalues ---    0.35250   0.38024   0.39251   0.40706   0.40879
     Eigenvalues ---    0.44993   0.53373   0.53622   0.53698   0.53717
     Eigenvalues ---    0.53862
 Angle between quadratic step and forces=  68.57 degrees.
 Linear search not attempted -- first point.
 Iteration  1 RMS(Cart)=  0.00034305 RMS(Int)=  0.00000022
 Iteration  2 RMS(Cart)=  0.00000022 RMS(Int)=  0.00000001
 ITry= 1 IFail=0 DXMaxC= 1.66D-03 DCOld= 1.00D+10 DXMaxT= 3.00D-01 DXLimC= 3.00D+00 Rises=F
 Variable       Old X    -DE/DX   Delta X   Delta X   Delta X     New X
                                 (Linear)    (Quad)   (Total)
    R1        2.67767  -0.00001   0.00000  -0.00001  -0.00001   2.67765
    R2        2.68600   0.00002   0.00000   0.00005   0.00005   2.68604
    R3        2.67773   0.00000   0.00000  -0.00001  -0.00001   2.67773
    R4        1.81850  -0.00000   0.00000   0.00000   0.00000   1.81851
    R5        2.66574  -0.00001   0.00000  -0.00006  -0.00006   2.66568
    R6        1.81805  -0.00000   0.00000   0.00001   0.00001   1.81806
    R7        2.65118   0.00002   0.00000  -0.00002  -0.00002   2.65116
    R8        1.81826  -0.00001   0.00000  -0.00003  -0.00003   1.81823
    R9        2.59606  -0.00000   0.00000  -0.00001  -0.00001   2.59605
   R10        1.81714   0.00000   0.00000   0.00000   0.00000   1.81714
   R11        2.65576  -0.00000   0.00000  -0.00001  -0.00001   2.65575
   R12        1.81827   0.00000   0.00000   0.00000   0.00000   1.81828
   R13        2.87097   0.00000   0.00000   0.00003   0.00003   2.87099
   R14        2.88165   0.00001   0.00000   0.00000   0.00000   2.88165
   R15        2.06981  -0.00000   0.00000   0.00000   0.00000   2.06982
   R16        2.86961   0.00003   0.00000   0.00000   0.00000   2.86962
   R17        2.08925   0.00001   0.00000   0.00004   0.00004   2.08929
   R18        2.86159  -0.00000   0.00000   0.00000   0.00000   2.86160
   R19        2.09020  -0.00000   0.00000  -0.00000  -0.00000   2.09020
   R20        2.88468   0.00001   0.00000   0.00007   0.00007   2.88475
   R21        2.08672  -0.00000   0.00000  -0.00001  -0.00001   2.08671
   R22        2.07703  -0.00000   0.00000  -0.00002  -0.00002   2.07702
   R23        2.07959  -0.00000   0.00000   0.00000   0.00000   2.07959
   R24        2.06333  -0.00000   0.00000   0.00000   0.00000   2.06333
    A1        1.99472   0.00001   0.00000   0.00006   0.00006   1.99479
    A2        1.89514   0.00000   0.00000   0.00002   0.00002   1.89516
    A3        1.88164   0.00001   0.00000  -0.00002  -0.00002   1.88162
    A4        1.86842   0.00005   0.00000   0.00035   0.00035   1.86878
    A5        1.90081  -0.00000   0.00000  -0.00002  -0.00002   1.90079
    A6        1.86618  -0.00000   0.00000  -0.00001  -0.00001   1.86617
    A7        1.92990  -0.00000   0.00000  -0.00003  -0.00003   1.92988
    A8        1.97422  -0.00000   0.00000   0.00004   0.00004   1.97427
    A9        1.84178   0.00000   0.00000  -0.00002  -0.00002   1.84176
   A10        1.90749   0.00000   0.00000   0.00001   0.00001   1.90750
   A11        1.90079  -0.00000   0.00000   0.00002   0.00002   1.90081
   A12        1.90755   0.00000   0.00000  -0.00003  -0.00003   1.90752
   A13        1.95792   0.00000   0.00000   0.00003   0.00003   1.95795
   A14        1.87214   0.00001   0.00000   0.00020   0.00020   1.87234
   A15        1.91692  -0.00001   0.00000  -0.00008  -0.00008   1.91684
   A16        1.94835  -0.00000   0.00000  -0.00015  -0.00015   1.94820
   A17        1.89080  -0.00001   0.00000  -0.00020  -0.00020   1.89060
   A18        1.87605   0.00001   0.00000   0.00022   0.00022   1.87627
   A19        1.91601  -0.00000   0.00000   0.00001   0.00001   1.91602
   A20        1.85348   0.00000   0.00000  -0.00001  -0.00001   1.85347
   A21        1.90676   0.00000   0.00000   0.00000   0.00000   1.90676
   A22        1.98328  -0.00000   0.00000  -0.00003  -0.00003   1.98325
   A23        1.90829   0.00000   0.00000   0.00001   0.00001   1.90830
   A24        1.89432   0.00000   0.00000   0.00001   0.00001   1.89433
   A25        1.94272   0.00004   0.00000   0.00036   0.00036   1.94308
   A26        1.90621  -0.00003   0.00000  -0.00022  -0.00022   1.90599
   A27        1.93891  -0.00001   0.00000  -0.00008  -0.00008   1.93884
   A28        1.91246  -0.00000   0.00000   0.00005   0.00005   1.91251
   A29        1.88560  -0.00001   0.00000  -0.00010  -0.00010   1.88550
   A30        1.87662   0.00001   0.00000  -0.00002  -0.00002   1.87660
   A31        1.89413   0.00000   0.00000  -0.00001  -0.00001   1.89412
   A32        1.88543   0.00000   0.00000   0.00012   0.00012   1.88555
   A33        1.91714   0.00000   0.00000   0.00002   0.00002   1.91717
   A34        1.98622  -0.00000   0.00000  -0.00006  -0.00006   1.98616
   A35        1.85733  -0.00000   0.00000  -0.00006  -0.00006   1.85727
   A36        1.92303   0.00000   0.00000  -0.00001  -0.00001   1.92302
   A37        1.94455  -0.00000   0.00000   0.00000   0.00000   1.94456
   A38        1.94735   0.00000   0.00000   0.00001   0.00001   1.94736
   A39        1.87701   0.00000   0.00000   0.00001   0.00001   1.87702
   A40        1.89234  -0.00000   0.00000  -0.00002  -0.00002   1.89233
   A41        1.91561   0.00000   0.00000   0.00000   0.00000   1.91561
   A42        1.88607   0.00000   0.00000  -0.00000  -0.00000   1.88607
    D1        1.09959  -0.00000   0.00000  -0.00020  -0.00020   1.09939
    D2       -3.03273  -0.00000   0.00000  -0.00023  -0.00023  -3.03296
    D3       -0.99284  -0.00000   0.00000  -0.00022  -0.00022  -0.99306
    D4        3.00970   0.00001   0.00000   0.00037   0.00037   3.01008
    D5       -1.11233   0.00000   0.00000   0.00037   0.00037  -1.11196
    D6        0.98573   0.00001   0.00000   0.00043   0.00043   0.98616
    D7       -1.21878  -0.00000   0.00000  -0.00010  -0.00010  -1.21888
    D8        0.92710  -0.00000   0.00000  -0.00007  -0.00007   0.92703
    D9        3.01166  -0.00000   0.00000  -0.00010  -0.00010   3.01156
   D10        0.85197  -0.00001   0.00000  -0.00168  -0.00168   0.85029
   D11        2.99750  -0.00001   0.00000  -0.00172  -0.00172   2.99578
   D12       -1.25187   0.00001   0.00000  -0.00139  -0.00139  -1.25326
   D13       -0.85402  -0.00000   0.00000  -0.00018  -0.00018  -0.85420
   D14       -2.96798  -0.00001   0.00000  -0.00033  -0.00033  -2.96831
   D15        1.24809   0.00001   0.00000  -0.00012  -0.00012   1.24797
   D16        1.28033  -0.00000   0.00000  -0.00031  -0.00031   1.28002
   D17       -0.81931  -0.00000   0.00000  -0.00041  -0.00041  -0.81972
   D18       -2.94054   0.00000   0.00000  -0.00031  -0.00031  -2.94085
   D19       -0.93713   0.00000   0.00000   0.00019   0.00019  -0.93694
   D20        1.18067   0.00000   0.00000   0.00017   0.00017   1.18084
   D21       -3.03707   0.00000   0.00000   0.00018   0.00018  -3.03689
   D22       -1.08455   0.00001   0.00000   0.00050   0.00050  -1.08405
   D23        3.09673  -0.00000   0.00000   0.00033   0.00033   3.09706
   D24        1.03435  -0.00001   0.00000   0.00028   0.00028   1.03463
   D25        3.01444   0.00001   0.00000   0.00045   0.00045   3.01489
   D26        0.91252   0.00000   0.00000   0.00029   0.00029   0.91281
   D27       -1.14985  -0.00000   0.00000   0.00023   0.00023  -1.14962
   D28        0.93162   0.00001   0.00000   0.00048   0.00048   0.93210
   D29       -1.17029  -0.00000   0.00000   0.00031   0.00031  -1.16998
   D30        3.05052  -0.00001   0.00000   0.00025   0.00025   3.05077
   D31       -3.11000  -0.00000   0.00000  -0.00020  -0.00020  -3.11020
   D32        1.10069  -0.00000   0.00000  -0.00018  -0.00018   1.10051
   D33       -1.01850  -0.00000   0.00000  -0.00019  -0.00019  -1.01869
   D34       -0.95175  -0.00000   0.00000  -0.00020  -0.00020  -0.95195
   D35       -3.02424  -0.00000   0.00000  -0.00018  -0.00018  -3.02442
   D36        1.13975  -0.00000   0.00000  -0.00018  -0.00018   1.13957
   D37        1.12688  -0.00000   0.00000  -0.00019  -0.00019   1.12669
   D38       -0.94562  -0.00000   0.00000  -0.00017  -0.00017  -0.94579
   D39       -3.06481  -0.00000   0.00000  -0.00017  -0.00017  -3.06498
   D40        1.07761   0.00001   0.00000  -0.00016  -0.00016   1.07745
   D41       -3.09527  -0.00000   0.00000  -0.00017  -0.00017  -3.09545
   D42       -1.05563  -0.00000   0.00000  -0.00023  -0.00023  -1.05586
   D43       -3.05414   0.00001   0.00000  -0.00009  -0.00009  -3.05423
   D44       -0.94384   0.00000   0.00000  -0.00010  -0.00010  -0.94394
   D45        1.09580   0.00000   0.00000  -0.00015  -0.00015   1.09565
   D46       -0.98296   0.00000   0.00000  -0.00028  -0.00028  -0.98324
   D47        1.12735  -0.00001   0.00000  -0.00029  -0.00029   1.12705
   D48       -3.11620  -0.00001   0.00000  -0.00035  -0.00035  -3.11654
   D49        1.08022   0.00000   0.00000  -0.00006  -0.00006   1.08016
   D50       -1.06932   0.00000   0.00000  -0.00006  -0.00006  -1.06938
   D51       -3.12590   0.00000   0.00000  -0.00005  -0.00005  -3.12595
   D52       -3.09496  -0.00000   0.00000  -0.00006  -0.00006  -3.09502
   D53        1.03869  -0.00000   0.00000  -0.00007  -0.00007   1.03862
   D54       -1.01789   0.00000   0.00000  -0.00005  -0.00005  -1.01795
   D55       -0.96799  -0.00000   0.00000  -0.00006  -0.00006  -0.96805
   D56       -3.11753  -0.00000   0.00000  -0.00006  -0.00006  -3.11759
   D57        1.10908   0.00000   0.00000  -0.00005  -0.00005   1.10902
   D58        3.12798   0.00002   0.00000   0.00018   0.00018   3.12816
   D59       -1.05068   0.00002   0.00000   0.00021   0.00021  -1.05047
   D60        1.03362   0.00002   0.00000   0.00009   0.00009   1.03371
   D61        0.99571  -0.00001   0.00000  -0.00015  -0.00015   0.99556
   D62        3.10023  -0.00001   0.00000  -0.00012  -0.00012   3.10011
   D63       -1.09864  -0.00001   0.00000  -0.00024  -0.00024  -1.09889
   D64       -1.04958  -0.00000   0.00000  -0.00005  -0.00005  -1.04963
   D65        1.05495   0.00000   0.00000  -0.00002  -0.00002   1.05493
   D66        3.13925  -0.00001   0.00000  -0.00014  -0.00014   3.13911
         Item               Value     Threshold  Converged?
 Maximum Force            0.000053     0.000450     YES
 RMS     Force            0.000009     0.000300     YES
 Maximum Displacement     0.001656     0.001800     YES
 RMS     Displacement     0.000343     0.001200     YES
 Predicted change in Energy=-6.212408D-08
 Optimization completed.
    -- Stationary point found.
                           ----------------------------
                           !   Optimized Parameters   !
                           ! (Angstroms and Degrees)  !
 --------------------------                            --------------------------
 ! Name  Definition              Value          Derivative Info.                !
 --------------------------------------------------------------------------------
 ! R1    R(1,9)                  1.417          -DE/DX =    0.0                 !
 ! R2    R(1,11)                 1.4214         -DE/DX =    0.0                 !
 ! R3    R(2,7)                  1.417          -DE/DX =    0.0                 !
 ! R4    R(2,20)                 0.9623         -DE/DX =    0.0                 !
 ! R5    R(3,8)                  1.4106         -DE/DX =    0.0                 !
 ! R6    R(3,21)                 0.9621         -DE/DX =    0.0                 !
 ! R7    R(4,10)                 1.4029         -DE/DX =    0.0                 !
 ! R8    R(4,22)                 0.9622         -DE/DX =    0.0                 !
 ! R9    R(5,11)                 1.3738         -DE/DX =    0.0                 !
 ! R10   R(5,23)                 0.9616         -DE/DX =    0.0                 !
 ! R11   R(6,12)                 1.4054         -DE/DX =    0.0                 !
 ! R12   R(6,24)                 0.9622         -DE/DX =    0.0                 !
 ! R13   R(7,8)                  1.5193         -DE/DX =    0.0                 !
 ! R14   R(7,9)                  1.5249         -DE/DX =    0.0                 !
 ! R15   R(7,13)                 1.0953         -DE/DX =    0.0                 !
 ! R16   R(8,10)                 1.5185         -DE/DX =    0.0                 !
 ! R17   R(8,14)                 1.1056         -DE/DX =    0.0                 !
 ! R18   R(9,12)                 1.5143         -DE/DX =    0.0                 !
 ! R19   R(9,15)                 1.1061         -DE/DX =    0.0                 !
 ! R20   R(10,11)                1.5265         -DE/DX =    0.0                 !
 ! R21   R(10,16)                1.1042         -DE/DX =    0.0                 !
 ! R22   R(11,17)                1.0991         -DE/DX =    0.0                 !
 ! R23   R(12,18)                1.1005         -DE/DX =    0.0                 !
 ! R24   R(12,19)                1.0919         -DE/DX =    0.0                 !
 ! A1    A(9,1,11)             114.2893         -DE/DX =    0.0                 !
 ! A2    A(7,2,20)             108.5835         -DE/DX =    0.0                 !
 ! A3    A(8,3,21)             107.8101         -DE/DX =    0.0                 !
 ! A4    A(10,4,22)            107.0528         -DE/DX =    0.0001              !
 ! A5    A(11,5,23)            108.9084         -DE/DX =    0.0                 !
 ! A6    A(12,6,24)            106.9244         -DE/DX =    0.0                 !
 ! A7    A(2,7,8)              110.5754         -DE/DX =    0.0                 !
 ! A8    A(2,7,9)              113.1147         -DE/DX =    0.0                 !
 ! A9    A(2,7,13)             105.526          -DE/DX =    0.0                 !
 ! A10   A(8,7,9)              109.2909         -DE/DX =    0.0                 !
 ! A11   A(8,7,13)             108.9071         -DE/DX =    0.0                 !
 ! A12   A(9,7,13)             109.2948         -DE/DX =    0.0                 !
 ! A13   A(3,8,7)              112.1804         -DE/DX =    0.0                 !
 ! A14   A(3,8,10)             107.2659         -DE/DX =    0.0                 !
 ! A15   A(3,8,14)             109.8316         -DE/DX =    0.0                 !
 ! A16   A(7,8,10)             111.6325         -DE/DX =    0.0                 !
 ! A17   A(7,8,14)             108.3346         -DE/DX =    0.0                 !
 ! A18   A(10,8,14)            107.4897         -DE/DX =    0.0                 !
 ! A19   A(1,9,7)              109.7791         -DE/DX =    0.0                 !
 ! A20   A(1,9,12)             106.1965         -DE/DX =    0.0                 !
 ! A21   A(1,9,15)             109.2495         -DE/DX =    0.0                 !
 ! A22   A(7,9,12)             113.6334         -DE/DX =    0.0                 !
 ! A23   A(7,9,15)             109.3372         -DE/DX =    0.0                 !
 ! A24   A(12,9,15)            108.5363         -DE/DX =    0.0                 !
 ! A25   A(4,10,8)             111.3099         -DE/DX =    0.0                 !
 ! A26   A(4,10,11)            109.218          -DE/DX =    0.0                 !
 ! A27   A(4,10,16)            111.0915         -DE/DX =    0.0                 !
 ! A28   A(8,10,11)            109.5759         -DE/DX =    0.0                 !
 ! A29   A(8,10,16)            108.0367         -DE/DX =    0.0                 !
 ! A30   A(11,10,16)           107.5222         -DE/DX =    0.0                 !
 ! A31   A(1,11,5)             108.5258         -DE/DX =    0.0                 !
 ! A32   A(1,11,10)            108.0272         -DE/DX =    0.0                 !
 ! A33   A(1,11,17)            109.8443         -DE/DX =    0.0                 !
 ! A34   A(5,11,10)            113.8018         -DE/DX =    0.0                 !
 ! A35   A(5,11,17)            106.4172         -DE/DX =    0.0                 !
 ! A36   A(10,11,17)           110.1818         -DE/DX =    0.0                 !
 ! A37   A(6,12,9)             111.4147         -DE/DX =    0.0                 !
 ! A38   A(6,12,18)            111.575          -DE/DX =    0.0                 !
 ! A39   A(6,12,19)            107.5449         -DE/DX =    0.0                 !
 ! A40   A(9,12,18)            108.4234         -DE/DX =    0.0                 !
 ! A41   A(9,12,19)            109.7561         -DE/DX =    0.0                 !
 ! A42   A(18,12,19)           108.0638         -DE/DX =    0.0                 !
 ! D1    D(11,1,9,7)            63.002          -DE/DX =    0.0                 !
 ! D2    D(11,1,9,12)         -173.7628         -DE/DX =    0.0                 !
 ! D3    D(11,1,9,15)          -56.8857         -DE/DX =    0.0                 !
 ! D4    D(9,1,11,5)           172.4434         -DE/DX =    0.0                 !
 ! D5    D(9,1,11,10)          -63.7316         -DE/DX =    0.0                 !
 ! D6    D(9,1,11,17)           56.4781         -DE/DX =    0.0                 !
 ! D7    D(20,2,7,8)           -69.8307         -DE/DX =    0.0                 !
 ! D8    D(20,2,7,9)            53.1191         -DE/DX =    0.0                 !
 ! D9    D(20,2,7,13)          172.5556         -DE/DX =    0.0                 !
 ! D10   D(21,3,8,7)            48.8142         -DE/DX =    0.0                 !
 ! D11   D(21,3,8,10)          171.7443         -DE/DX =    0.0                 !
 ! D12   D(21,3,8,14)          -71.7267         -DE/DX =    0.0                 !
 ! D13   D(22,4,10,8)          -48.9318         -DE/DX =    0.0                 !
 ! D14   D(22,4,10,11)        -170.0529         -DE/DX =    0.0                 !
 ! D15   D(22,4,10,16)          71.5104         -DE/DX =    0.0                 !
 ! D16   D(23,5,11,1)           73.3573         -DE/DX =    0.0                 !
 ! D17   D(23,5,11,10)         -46.9428         -DE/DX =    0.0                 !
 ! D18   D(23,5,11,17)        -168.4806         -DE/DX =    0.0                 !
 ! D19   D(24,6,12,9)          -53.6937         -DE/DX =    0.0                 !
 ! D20   D(24,6,12,18)          67.6474         -DE/DX =    0.0                 !
 ! D21   D(24,6,12,19)        -174.0113         -DE/DX =    0.0                 !
 ! D22   D(2,7,8,3)            -62.14           -DE/DX =    0.0                 !
 ! D23   D(2,7,8,10)           177.4293         -DE/DX =    0.0                 !
 ! D24   D(2,7,8,14)            59.2638         -DE/DX =    0.0                 !
 ! D25   D(9,7,8,3)            172.7144         -DE/DX =    0.0                 !
 ! D26   D(9,7,8,10)            52.2837         -DE/DX =    0.0                 !
 ! D27   D(9,7,8,14)           -65.8818         -DE/DX =    0.0                 !
 ! D28   D(13,7,8,3)            53.378          -DE/DX =    0.0                 !
 ! D29   D(13,7,8,10)          -67.0527         -DE/DX =    0.0                 !
 ! D30   D(13,7,8,14)          174.7819         -DE/DX =    0.0                 !
 ! D31   D(2,7,9,1)           -178.19           -DE/DX =    0.0                 !
 ! D32   D(2,7,9,12)            63.0648         -DE/DX =    0.0                 !
 ! D33   D(2,7,9,15)           -58.3557         -DE/DX =    0.0                 !
 ! D34   D(8,7,9,1)            -54.5311         -DE/DX =    0.0                 !
 ! D35   D(8,7,9,12)          -173.2764         -DE/DX =    0.0                 !
 ! D36   D(8,7,9,15)            65.3031         -DE/DX =    0.0                 !
 ! D37   D(13,7,9,1)            64.5652         -DE/DX =    0.0                 !
 ! D38   D(13,7,9,12)          -54.1801         -DE/DX =    0.0                 !
 ! D39   D(13,7,9,15)         -175.6006         -DE/DX =    0.0                 !
 ! D40   D(3,8,10,4)            61.7424         -DE/DX =    0.0                 !
 ! D41   D(3,8,10,11)         -177.3461         -DE/DX =    0.0                 !
 ! D42   D(3,8,10,16)          -60.4831         -DE/DX =    0.0                 !
 ! D43   D(7,8,10,4)          -174.9895         -DE/DX =    0.0                 !
 ! D44   D(7,8,10,11)          -54.078          -DE/DX =    0.0                 !
 ! D45   D(7,8,10,16)           62.7849         -DE/DX =    0.0                 !
 ! D46   D(14,8,10,4)          -56.3194         -DE/DX =    0.0                 !
 ! D47   D(14,8,10,11)          64.5921         -DE/DX =    0.0                 !
 ! D48   D(14,8,10,16)        -178.5449         -DE/DX =    0.0                 !
 ! D49   D(1,9,12,6)            61.892          -DE/DX =    0.0                 !
 ! D50   D(1,9,12,18)          -61.2673         -DE/DX =    0.0                 !
 ! D51   D(1,9,12,19)         -179.1009         -DE/DX =    0.0                 !
 ! D52   D(7,9,12,6)          -177.3281         -DE/DX =    0.0                 !
 ! D53   D(7,9,12,18)           59.5126         -DE/DX =    0.0                 !
 ! D54   D(7,9,12,19)          -58.321          -DE/DX =    0.0                 !
 ! D55   D(15,9,12,6)          -55.4617         -DE/DX =    0.0                 !
 ! D56   D(15,9,12,18)        -178.621          -DE/DX =    0.0                 !
 ! D57   D(15,9,12,19)          63.5454         -DE/DX =    0.0                 !
 ! D58   D(4,10,11,1)          179.2199         -DE/DX =    0.0                 !
 ! D59   D(4,10,11,5)          -60.1998         -DE/DX =    0.0                 !
 ! D60   D(4,10,11,17)          59.2222         -DE/DX =    0.0                 !
 ! D61   D(8,10,11,1)           57.05           -DE/DX =    0.0                 !
 ! D62   D(8,10,11,5)          177.6303         -DE/DX =    0.0                 !
 ! D63   D(8,10,11,17)         -62.9477         -DE/DX =    0.0                 !
 ! D64   D(16,10,11,1)         -60.1364         -DE/DX =    0.0                 !
 ! D65   D(16,10,11,5)          60.4439         -DE/DX =    0.0                 !
 ! D66   D(16,10,11,17)        179.8659         -DE/DX =    0.0                 !
 --------------------------------------------------------------------------------
 GradGradGradGradGradGradGradGradGradGradGradGradGradGradGradGradGradGrad

 Leave Link  103 at Fri Nov  1 11:08:39 2024, MaxMem=  4294967296 cpu:               0.6 elap:               0.0
 (Enter /home/matma/Software/gaussian16.B01_files/AVX2/tar//g16/l9999.exe)

 ----------------------------------------------------------------------

 Electric dipole moment (input orientation):
 (Debye = 10**-18 statcoulomb cm , SI units = C m)
                  (au)            (Debye)         (10**-30 SI)
   Tot        0.100618D+01      0.255746D+01      0.853076D+01
   x          0.288015D+00      0.732061D+00      0.244189D+01
   y         -0.963564D+00     -0.244914D+01     -0.816944D+01
   z          0.314865D-01      0.800306D-01      0.266953D+00

 Dipole polarizability, Alpha (input orientation).
 (esu units = cm**3 , SI units = C**2 m**2 J**-1)
 Alpha(0;0):
               (au)            (10**-24 esu)      (10**-40 SI)
   iso        0.944677D+02      0.139987D+02      0.155756D+02
   aniso      0.196564D+02      0.291278D+01      0.324090D+01
   xx         0.102981D+03      0.152602D+02      0.169793D+02
   yx         0.137548D+01      0.203825D+00      0.226786D+00
   yy         0.985835D+02      0.146086D+02      0.162542D+02
   zx        -0.298402D+00     -0.442186D-01     -0.491998D-01
   zy         0.153383D+01      0.227290D+00      0.252894D+00
   zz         0.818385D+02      0.121272D+02      0.134933D+02

 ----------------------------------------------------------------------

 Dipole orientation:
     8         -0.70368118          0.36402213         -2.40358190
     8         -2.57324644         -1.51582019          4.01554884
     8          2.34064786          0.77373547          4.66592020
     8          5.50337900          0.70584414          0.42282566
     8          3.02588214          1.21458854         -4.34061827
     8         -5.43342306         -1.61325255         -3.59254208
     6         -1.34018757         -0.14775267          2.07178691
     6          1.51002314         -0.30938624          2.37614145
     6         -2.06710117         -1.03453544         -0.57190718
     6          2.87958274          1.04327131          0.24792462
     6          1.95915286          0.03037269         -2.29140979
     6         -4.83768591         -0.66433702         -1.18470060
     1         -1.93057786          1.82056554          2.31936791
     1          2.06587425         -2.32194725          2.30132366
     1         -1.60768026         -3.06378578         -0.77197129
     1          2.37497737          3.06606647          0.33767031
     1          2.42527878         -1.98577084         -2.47018783
     1         -5.27991136          1.36182073         -1.03034170
     1         -5.99716289         -1.67863743          0.18794241
     1         -2.28964867         -3.29144362          3.74409309
     1          1.30808388          0.10463768          6.00436486
     1          5.97595986          1.08028287          2.13820241
     1          2.95809176          3.01211530         -4.08313370
     1         -4.27977143         -0.84038018         -4.76637272

 Electric dipole moment (dipole orientation):
 (Debye = 10**-18 statcoulomb cm , SI units = C m)
                  (au)            (Debye)         (10**-30 SI)
   Tot        0.100618D+01      0.255746D+01      0.853076D+01
   x          0.000000D+00      0.000000D+00      0.000000D+00
   y          0.000000D+00      0.000000D+00      0.000000D+00
   z          0.100618D+01      0.255746D+01      0.853076D+01

 Dipole polarizability, Alpha (dipole orientation).
 (esu units = cm**3 , SI units = C**2 m**2 J**-1)
 Alpha(0;0):
               (au)            (10**-24 esu)      (10**-40 SI)
   iso        0.944677D+02      0.139987D+02      0.155756D+02
   aniso      0.196564D+02      0.291278D+01      0.324090D+01
   xx         0.101535D+03      0.150459D+02      0.167409D+02
   yx         0.600507D+01      0.889859D+00      0.990102D+00
   yy         0.837920D+02      0.124167D+02      0.138154D+02
   zx         0.649938D+00      0.963109D-01      0.107160D+00
   zy        -0.195935D+01     -0.290346D+00     -0.323053D+00
   zz         0.980761D+02      0.145334D+02      0.161706D+02

 ----------------------------------------------------------------------
 1\1\GINC-SHORTBREAD-02\Freq\RPBE1PBE\6-311+G(d,p)\C6H12O6\EUGENE\01-No
 v-2024\0\\#P Geom=AllCheck Guess=TCheck SCRF=Check GenChk RPBE1PBE/6-3
 11+G(d,p) Freq\\OPT+FREQ\\0,1\O,-0.6556665469,1.1404033747,0.251260948
 6\O,-0.8584724621,-2.4857132301,-0.3118852536\O,1.9558097536,-1.989947
 2935,0.1148177594\O,2.8442118556,0.6011831648,-0.4689250088\O,0.987356
 3194,2.6964602267,0.0852860073\O,-3.4178998564,0.9617778323,-0.0540025
 799\C,-0.3598097527,-1.2470730418,0.1624368211\C,1.0519914136,-1.00987
 76947,-0.3461683302\C,-1.2390996078,-0.0615581289,-0.2206220805\C,1.58
 7040453,0.3405343608,0.0966136131\C,0.6115509924,1.4385532795,-0.31931
 52631\C,-2.6294967811,-0.1190252697,0.3765072714\H,-0.333047889,-1.340
 231732,1.2534385892\H,1.0283505353,-1.0117201235,-1.4514980512\H,-1.33
 10340411,-0.0144719065,-1.3218766346\H,1.6393455742,0.3426197166,1.199
 6143983\H,0.5279506741,1.4765636942,-1.4145909122\H,-2.5365440399,-0.1
 407122991,1.4728330777\H,-3.1290653837,-1.0371613473,0.0608583206\H,-1
 .0111958103,-2.4123158543,-1.2591602821\H,1.5614399086,-2.852671726,-0
 .0456853838\H,3.3869259239,-0.1796926668,-0.3223511304\H,1.246171338,2
 .6617814697,1.0107401169\H,-2.9250125707,1.764195195,0.1434739869\\Ver
 sion=ES64L-G16RevB.01\State=1-A\HF=-686.6618242\RMSD=2.582e-09\RMSF=1.
 009e-05\ZeroPoint=0.1988441\Thermal=0.2111936\Dipole=0.2880151,-0.9635
 64,0.0314865\DipoleDeriv=-1.1714198,-0.4072105,0.040798,-0.3057909,-0.
 8530108,-0.0698908,0.1260189,0.0202318,-0.4266575,-0.6695298,-0.128448
 3,-0.0166168,-0.1672915,-0.8632609,-0.159733,-0.0592571,-0.251909,-0.2
 862115,-0.7047798,0.3153243,-0.0002526,0.3309219,-0.8067332,0.1045634,
 -0.0163223,0.132644,-0.4564763,-1.0356791,-0.1510689,0.1339849,-0.0867
 061,-0.3707481,-0.0576681,0.1639452,-0.0627951,-0.4724572,-0.6025739,-
 0.1390645,-0.0039754,-0.2332159,-1.0240945,-0.1645702,-0.0535425,-0.29
 11503,-0.3024261,-0.7157817,0.2806523,0.0404956,0.4007419,-0.7083326,0
 .1110319,0.032394,0.1060314,-0.4846104,0.2683186,0.2991441,0.0456595,0
 .1011633,0.5850281,0.1154317,0.0648951,0.1784135,0.2362599,0.3296795,-
 0.2926027,0.0718471,-0.3396313,0.4601691,-0.1302717,0.0906487,-0.09676
 09,0.3382405,0.3015351,0.2322955,0.0516542,0.2101628,0.5066808,0.06265
 35,0.1929795,0.112049,0.3256752,0.6993177,0.1013607,-0.1777382,0.15372
 05,0.0720911,-0.0069434,-0.1871997,0.0757423,0.351164,1.1158255,0.3656
 806,-0.0352739,0.330187,1.1500797,0.0721834,-0.1537863,0.0400458,0.513
 2461,0.512758,-0.2723282,0.0576894,-0.3057323,0.5174936,-0.1080611,0.0
 659083,-0.088932,0.365012,0.0382423,-0.0162436,-0.0090485,-0.0085655,0
 .0180333,-0.0068109,-0.0108335,-0.0063831,-0.0842764,-0.0138259,0.0229
 27,-0.0437899,0.0154934,-0.0104703,0.0111227,-0.0530532,0.0236464,-0.1
 749475,0.0132507,-0.0039862,0.0324957,-0.0363209,-0.0261304,0.0098064,
 -0.0380791,-0.0450077,-0.1803684,-0.0183075,-0.0015535,0.0268519,-0.01
 80122,0.0033729,-0.012593,0.0462596,-0.0235507,-0.1714895,-0.0136392,-
 0.0180703,-0.0431199,0.0038831,0.0105762,-0.0319116,0.0117315,-0.00131
 71,-0.1292558,-0.0024805,0.0478567,-0.0600062,0.0446813,0.0138954,0.00
 67829,-0.0265316,0.0630271,-0.1647065,0.0179501,-0.0624623,-0.0118678,
 -0.0343678,-0.0540311,-0.0203127,-0.0380907,-0.0544642,0.0496509,0.333
 2368,-0.0209255,0.0115095,-0.0040061,0.2825254,0.1255151,-0.0054625,0.
 0694787,0.1465393,0.2986665,-0.0931878,-0.038256,-0.04846,0.285465,-0.
 0128471,-0.0561766,-0.0246072,0.2815961,0.3538111,0.0223091,0.0088851,
 0.0508697,0.2337595,0.0407844,0.0106011,0.0623979,0.2777164,0.3461847,
 0.0072823,-0.0141496,0.0124497,0.3082485,0.1208401,-0.0220121,0.068074
 4,0.1719185,0.3192406,-0.0876802,-0.067776,-0.0661743,0.2693932,0.0008
 978,-0.0850346,-0.004905,0.2768641\Polar=102.98113,1.3754805,98.583500
 1,-0.2984019,1.5338288,81.8384979\Quadrupole=-6.8196184,-0.0138047,6.8
 334231,-0.9458537,1.8332463,5.7374568\PG=C01 [X(C6H12O6)]\NImag=0\\0.3
 7055464,0.11748442,0.33574376,-0.07413966,0.08302437,0.20236234,0.0030
 3602,0.00679692,-0.00039104,0.11098449,0.00313743,-0.01349705,0.002182
 63,0.09201335,0.30942763,-0.00032063,0.00015567,0.00260179,0.11193036,
 0.01487441,0.61563370,0.00334102,0.00149554,-0.00000058,0.00285903,0.0
 0069621,-0.00058820,0.30918076,0.00145584,0.00165010,-0.00042561,-0.00
 443905,0.00565079,0.00019130,0.08040738,0.63535019,-0.00057395,0.00049
 133,0.00047678,-0.00021414,0.00054751,0.00183744,0.11646133,0.01704056
 ,0.10864510,-0.00882745,0.00509094,-0.00128397,-0.00373519,-0.00398995
 ,-0.00049041,0.00430936,0.00173860,-0.00031068,0.47400388,0.01250662,-
 0.00188050,0.00018257,-0.00430396,-0.00179421,-0.00016913,-0.00199399,
 0.00064093,0.00063093,-0.18437369,0.46003889,-0.00210117,0.00090205,0.
 00241574,-0.00004343,0.00026449,0.00047992,-0.00065276,-0.00027970,0.0
 0156101,-0.07025400,-0.10737338,0.12591157,-0.02419209,-0.05403073,-0.
 01198858,0.00153523,-0.00133736,-0.00011562,0.00154847,0.00216382,0.00
 028510,0.00250490,0.00166347,0.00024700,0.13851138,-0.03545941,-0.0310
 0726,-0.00153974,-0.00072324,-0.00159994,-0.00023739,-0.00008668,-0.00
 561479,-0.00046036,0.00101808,0.00288148,-0.00009291,0.07914001,0.3789
 3118,-0.00067006,0.00996197,0.01252401,-0.00010880,-0.00015336,0.00002
 526,0.00019945,-0.00062681,0.00054122,-0.00017997,0.00015084,0.0009783
 6,0.16595534,0.04101782,0.60017639,-0.00046309,0.00175768,-0.00030536,
 0.00157116,0.00117731,0.00070731,-0.00273788,0.00103720,0.00020207,-0.
 00097511,-0.00020399,0.00008918,-0.00027709,-0.00121838,-0.00034314,0.
 33753242,-0.00325824,0.00328549,-0.00060700,0.00162449,0.00003917,-0.0
 0034858,0.00174904,-0.00024529,-0.00014414,0.00042482,0.00066250,-0.00
 010278,0.00023987,0.00112719,0.00014921,0.09798529,0.60592281,0.000451
 93,-0.00032253,0.00188733,-0.00006211,0.00020431,0.00023428,0.00046406
 ,-0.00023600,0.00001020,0.00003259,-0.00004956,0.00009922,0.00009656,0
 .00003582,0.00018261,0.12656442,0.01970921,0.11516023,0.00472757,-0.02
 247974,0.00272645,-0.08060764,-0.04572975,-0.02903796,-0.03572253,0.00
 953632,0.00423993,0.00519791,0.00313570,-0.00034149,-0.00262270,0.0008
 6899,0.00013700,-0.00880669,0.00133875,0.00259660,0.48438903,0.0073333
 2,-0.03705113,-0.00148558,-0.05574047,-0.19559566,-0.05897726,0.039227
 57,-0.01062544,-0.00545913,-0.00325869,-0.00558219,-0.00155756,0.00060
 142,0.00156175,0.00014682,-0.00668695,0.00257675,0.00078769,-0.0029333
 9,0.49346798,0.00472342,-0.01803977,0.00279522,-0.01537251,-0.01114432
 ,-0.10977309,-0.01671302,0.00030132,0.00496743,-0.00241935,-0.00282354
 ,0.00077306,-0.00059767,-0.00040662,-0.00002531,0.00365245,-0.00164663
 ,0.00017073,0.01010881,-0.01638775,0.64440273,-0.00207952,-0.00415473,
 0.00019224,-0.02040505,-0.01455014,0.00174617,-0.14729894,0.08147428,-
 0.04805324,-0.04012722,-0.03816535,-0.00212028,-0.00404342,0.00771237,
 -0.00072291,0.00130451,-0.00105548,-0.00004012,-0.16040816,-0.02626773
 ,0.04206443,0.50521598,-0.00455346,0.00190027,0.00070678,-0.04252844,-
 0.03011952,0.00520621,0.03853564,-0.15730476,0.02775470,-0.01033142,-0
 .00851846,0.00026664,0.00057579,0.00112156,0.00081658,0.00233107,-0.00
 111115,-0.00035198,-0.00201242,-0.07344135,0.00295550,0.00758395,0.526
 41091,0.00134326,-0.00130870,-0.00063949,-0.01729786,-0.01067955,0.002
 04532,-0.04384836,0.04246965,-0.09030743,0.01332797,0.01703205,0.00370
 477,-0.00184010,0.00430584,0.00011746,-0.00174499,0.00089267,0.0006268
 7,0.04718609,0.01179160,-0.10564537,0.00223219,0.00827407,0.58149329,-
 0.09416840,-0.02952826,0.00236229,0.00901317,-0.02048193,0.00129261,-0
 .01054787,0.00063680,0.00159289,0.00255272,-0.00131132,-0.00030944,-0.
 00268626,-0.00151623,0.00061076,-0.03280902,0.01507615,0.00400991,-0.1
 3195485,0.05150508,-0.01813752,-0.02099620,0.02945255,-0.01193120,0.52
 777617,-0.04851204,-0.17346358,-0.04669701,0.00659299,-0.03197280,0.00
 212877,-0.00832937,0.00184739,0.00080076,0.00168200,-0.00394055,-0.000
 20895,0.00231449,0.00497731,0.00081375,0.03981660,-0.01622478,-0.00794
 408,0.05415202,-0.12142015,0.03013935,0.01300352,0.00539567,-0.0030431
 8,-0.01469467,0.46874922,-0.01292981,-0.05928660,-0.09906259,0.0033608
 9,-0.01996945,-0.00098212,0.00375425,-0.00126885,0.00035799,0.00151533
 ,-0.00088209,-0.00052716,0.00589594,0.00534770,0.00125406,-0.01405561,
 0.00290194,0.00590554,-0.01823528,0.03697999,-0.09746144,0.00539278,-0
 .00817183,0.00568861,-0.01334501,-0.01160970,0.58625814,-0.04002709,0.
 01442374,0.00092499,-0.00481352,-0.00113108,0.00140122,0.00459751,0.03
 148513,0.00594552,-0.21000512,-0.00018170,0.06002534,0.00673018,-0.016
 31339,0.00046054,0.00069297,-0.00072628,-0.00002468,-0.01085124,-0.025
 87739,-0.00966869,-0.08607808,-0.04616188,-0.01910207,-0.00108199,0.00
 199639,-0.00111489,0.52741012,-0.01207543,0.00806362,0.00000212,0.0050
 2838,0.00428498,-0.00025205,-0.00327108,-0.04547143,-0.00531864,-0.042
 17220,-0.09705500,0.03229434,0.01593370,-0.04900655,0.00515644,0.00022
 517,-0.00085835,0.00004360,-0.01299639,-0.00263578,0.00239621,-0.01689
 209,-0.15638255,-0.03812011,0.00218040,0.00616999,0.00144810,-0.018278
 46,0.51592630,0.02262549,-0.00853120,0.00145946,0.00397896,0.00267544,
 0.00059251,0.00454254,0.01704199,0.00457301,0.07211339,0.01707899,-0.1
 0314026,0.00659746,-0.01630282,0.00283415,0.00028170,0.00022232,-0.000
 12033,-0.00028001,0.01092674,0.00463154,-0.01328732,-0.04293212,-0.097
 84898,-0.00054359,-0.00177492,0.00017742,0.00402978,-0.00270242,0.5894
 5891,-0.15987521,-0.00538606,0.05066860,-0.00499245,0.00464465,0.00037
 948,-0.00338787,-0.00994017,-0.00104845,-0.03352732,0.01991863,-0.0023
 7906,-0.07312021,-0.02267849,-0.02520232,0.00217047,-0.00055377,-0.000
 34084,0.00961189,-0.00104252,0.00189816,0.01581376,0.00325656,0.007282
 79,-0.02378431,-0.02161924,-0.00487944,-0.10559649,0.04329806,-0.03757
 493,0.43704880,0.02318056,-0.07298752,-0.01910118,0.00137590,0.0029246
 6,0.00042146,-0.00367540,-0.00142047,-0.00117360,-0.00822578,0.0082145
 6,-0.00289771,-0.04411480,-0.24788140,-0.07529463,0.00257092,0.0004869
 2,0.00014805,-0.00308113,-0.00242664,0.00111070,0.01621867,-0.02765368
 ,0.00682108,-0.03194378,-0.01816082,0.00959101,0.05916975,-0.13176761,
 0.03341011,-0.01050596,0.55084296,0.06740654,0.00059482,-0.11251023,0.
 00081433,-0.00202056,-0.00041407,-0.00037000,-0.00217673,-0.00106123,0
 .01584052,-0.01349340,0.00351676,-0.02021658,-0.03043947,-0.12731199,-
 0.00072524,-0.00004847,-0.00025296,-0.00110327,0.00159688,-0.00041150,
 0.00760297,-0.00705360,0.00416647,-0.01073096,0.00228173,0.00451145,-0
 .03391100,0.02479797,-0.10160637,0.04167121,0.03421984,0.66040975,-0.0
 2967004,-0.01299686,0.00526568,-0.00236305,-0.00151135,-0.00078414,0.0
 0212877,-0.00084571,0.00019557,0.00053770,0.00045761,-0.00008692,-0.00
 002955,0.00055444,0.00041815,-0.13465337,0.08687735,-0.04342822,-0.015
 06137,0.01201654,0.00387499,-0.00082825,-0.00039681,0.00046974,-0.1656
 5584,-0.02134713,0.05230650,-0.00078728,-0.00063410,0.00011626,-0.0003
 7559,-0.00092489,-0.00136686,0.49960397,-0.04359146,-0.01671603,0.0146
 5372,-0.00367737,0.00105231,-0.00015350,0.00227622,-0.00049011,-0.0001
 8577,-0.00042688,0.00024289,0.00011046,-0.00275468,-0.00302802,-0.0002
 9657,0.04250555,-0.18889430,0.03196354,0.02847220,0.00372842,-0.009946
 76,0.00014062,-0.00444251,0.00206936,0.00287956,-0.07072800,-0.0009977
 2,0.00006720,-0.00048648,0.00012176,0.00193407,-0.00350938,-0.00365240
 ,0.06249510,0.59443229,-0.01547655,-0.00348613,0.00667889,0.00023934,-
 0.00020572,0.00014838,-0.00204879,0.00075923,0.00052026,-0.00034688,0.
 00010224,-0.00009050,-0.00105666,-0.00123890,0.00029366,-0.04008738,0.
 04907253,-0.08901121,-0.01223787,-0.00321732,0.00454087,-0.00003598,0.
 00237969,-0.00245670,0.05685602,0.00778158,-0.10944499,0.00018530,0.00
 003494,0.00047712,0.00106898,-0.00082481,-0.00261877,0.03042649,0.0299
 3565,0.57425567,0.00057660,-0.00121023,0.00132470,-0.00126625,-0.00324
 536,-0.01612836,0.00362569,-0.00047549,-0.00234856,-0.00034735,-0.0002
 1748,-0.00088620,0.00009257,-0.00006582,-0.00001927,0.00000447,-0.0004
 2402,0.00083988,-0.04900916,0.00265502,0.00004236,-0.00168469,-0.00435
 994,0.03349324,-0.00080044,0.00351002,-0.02174000,0.00087914,0.0008504
 8,0.00128679,-0.00039768,0.00008268,0.00017791,0.00054074,0.00014369,-
 0.00202982,0.05576982,-0.00011108,0.00241107,-0.00137406,-0.00625683,-
 0.00561179,-0.03893248,-0.00004426,0.00029838,-0.00096686,0.00010447,-
 0.00004400,-0.00028034,-0.00000077,-0.00005093,-0.00006507,-0.00008299
 ,0.00016768,-0.00059727,0.00171978,-0.04975980,0.03627750,0.00137679,0
 .00038476,0.00580096,0.00162295,-0.00260520,0.02554969,-0.00009091,0.0
 0007364,0.00091585,-0.00026765,-0.00009939,0.00036278,-0.00078294,0.00
 050998,0.00087255,0.00314891,0.06325809,0.00083264,0.00039379,0.001617
 92,-0.00392202,-0.00559512,-0.01333298,-0.00114149,-0.00075494,0.00245
 782,0.00007296,0.00018125,0.00062139,0.00004621,0.00008239,0.00007995,
 0.00011156,0.00000187,0.00039580,-0.00283640,0.02594296,-0.30568972,0.
 00053233,0.00356747,-0.01335000,-0.00153887,0.00131512,-0.00874786,-0.
 00003709,-0.00088378,-0.00092547,-0.00018521,0.00007559,-0.00008850,0.
 00099397,-0.00042984,0.00013936,0.00606742,-0.02360496,0.33451610,-0.0
 0005245,0.00031395,-0.00029075,0.00301852,0.00202741,-0.00074524,-0.00
 728730,0.01111798,-0.02817865,0.00123423,0.00137152,0.00040279,0.00005
 863,-0.00020965,0.00023775,-0.00007930,0.00011726,-0.00015384,-0.00317
 081,0.00085952,0.03274561,-0.04835145,-0.00335260,0.00564108,0.0018911
 7,-0.00120517,0.00138772,0.00072328,-0.00278327,-0.01273470,-0.0003913
 2,0.00068053,0.00024216,-0.00008659,-0.00014209,0.00005773,-0.00513260
 ,-0.00116510,0.00162631,0.05931472,0.00040982,-0.00035193,0.00045064,0
 .00127916,0.00097891,0.00079461,0.01186944,-0.00779810,0.03026662,0.00
 201163,0.00243738,0.00217139,0.00014490,-0.00018556,0.00053032,-0.0000
 8635,0.00002680,0.00001498,-0.00297167,0.00086089,0.00633269,-0.003800
 52,-0.04880552,-0.01013133,-0.00003200,-0.00036266,-0.00067970,0.00021
 290,-0.00336143,-0.03154309,-0.00063195,0.00126898,-0.00230826,0.00000
 890,0.00009145,-0.00013211,-0.00081227,0.00013298,0.00050453,-0.005050
 31,0.05946432,0.00052596,-0.00012593,0.00057909,-0.00091020,0.00030600
 ,0.00351917,-0.00954527,0.01146800,-0.00934287,0.00013616,0.00115792,0
 .00265675,0.00034078,-0.00028274,0.00080064,0.00023180,-0.00008346,0.0
 0006997,-0.00002397,-0.00327647,-0.01497726,0.00365651,-0.01061593,-0.
 27967961,-0.00055599,0.00057141,-0.00110644,0.00210400,-0.00207714,-0.
 01332182,-0.00106021,0.00088065,-0.00158584,0.00018743,-0.00025816,0.0
 0047396,0.00168186,0.00017543,0.00022795,0.00279987,0.00348973,0.31110
 800,-0.00417303,-0.00837860,-0.01531399,0.00004368,-0.00114234,0.00107
 997,-0.00014438,-0.00012819,0.00069868,-0.00014068,0.00008158,0.000116
 48,-0.00015983,-0.00016267,0.00058100,0.00310401,-0.00090396,-0.002552
 20,-0.00157602,0.00334571,-0.02103023,0.00082290,0.00013939,-0.0016391
 9,-0.05147838,0.00406766,-0.01564265,-0.00018184,-0.00000720,0.0001252
 8,0.00227471,0.00045021,-0.00446986,0.00074512,-0.00236040,0.03267125,
 -0.00182986,0.00246630,-0.00040724,-0.00031807,0.00017735,0.00051730,0
 .05668483,-0.01296161,-0.01223585,-0.03734540,0.00002852,0.00292271,0.
 00002410,0.00026748,0.00003025,-0.00069315,-0.00020090,0.00038832,0.00
 002363,-0.00043638,-0.00049753,0.00070194,-0.00032858,0.00021764,-0.00
 084979,0.00244104,-0.00196060,0.02635947,-0.00117966,0.00013303,0.0009
 2152,0.00354737,-0.04963585,0.02355525,-0.00012642,-0.00039856,0.00044
 891,0.00446122,0.00168645,-0.00460356,0.00077299,0.00037420,0.00326246
 ,0.00274957,-0.00344226,0.00077961,0.00032438,0.00007192,-0.00049365,0
 .00140885,0.06223856,-0.00807253,-0.01292802,-0.01270828,0.00098163,0.
 00107288,0.00293472,0.00007869,0.00009788,0.00070142,-0.00040283,0.000
 19360,0.00019541,-0.00042382,-0.00033643,0.00075053,-0.00110986,-0.000
 53463,0.00288517,-0.00062639,-0.00025528,-0.01120103,0.00085432,-0.000
 13538,-0.00073797,-0.01464112,0.01940870,-0.27636064,0.00009294,-0.000
 29142,0.00006725,0.00355739,0.00117861,-0.00021462,-0.00108131,0.00297
 694,-0.01568941,-0.00103296,0.00072486,0.00047630,-0.00071698,-0.00005
 032,0.00090541,0.02120364,-0.01312201,0.30816864,0.00194459,-0.0000871
 7,0.00049860,0.00008420,0.00005460,0.00022559,0.00034652,0.00052544,0.
 00117028,-0.01301529,-0.00369388,0.04063355,0.00055194,-0.00166578,0.0
 0115574,-0.00000903,0.00000053,0.00005044,-0.00006025,0.00019717,-0.00
 095276,0.00001661,0.00006711,-0.01210033,-0.00024295,-0.00031131,-0.00
 031493,-0.04800168,0.00201293,-0.02558398,-0.00304053,0.00030713,-0.02
 236013,0.00003597,0.00002009,-0.00009334,-0.00024354,-0.00037529,0.000
 22130,-0.00053500,-0.00224193,-0.00054764,0.00012703,0.00003578,0.0002
 7327,0.06278581,-0.00189327,0.00062572,-0.00139425,-0.00039569,-0.0003
 6633,0.00074750,0.00024222,0.00305495,0.00132750,-0.00238812,0.0034847
 0,0.00755335,-0.00033354,0.00315646,0.00024990,-0.00005953,0.00006197,
 0.00000391,0.00098015,0.00059114,-0.00127959,-0.00569475,-0.00249563,-
 0.03208932,-0.00016073,-0.00033017,-0.00009239,0.00116945,-0.05230732,
 -0.00208046,0.00522630,-0.00164158,0.02740476,0.00004823,0.00005538,-0
 .00008289,-0.00049191,-0.00015551,0.00052953,-0.00181886,-0.00488386,-
 0.00162587,-0.00002468,-0.00014343,0.00008602,0.00272101,0.05451527,0.
 00007253,-0.00051395,0.00256381,-0.00047234,-0.00023171,0.00066654,0.0
 0050714,0.00057712,0.00182203,0.01516107,0.00253404,-0.01266517,0.0009
 2888,-0.00017465,0.00307339,-0.00003516,0.00000060,0.00008495,0.000997
 24,-0.00014735,-0.00112530,-0.00395482,0.00051752,-0.01315606,-0.00028
 713,-0.00013621,-0.00012858,-0.02597377,-0.00470686,-0.28142690,-0.001
 51085,-0.00179616,-0.01414434,0.00003379,0.00006517,-0.00011598,-0.000
 60925,-0.00020858,0.00069634,-0.00069731,-0.00151614,0.00008467,0.0002
 2045,0.00005697,0.00017380,0.01621209,0.00116731,0.31375043,-0.0133387
 2,-0.00914568,0.03862012,0.00034269,-0.00029109,-0.00004574,-0.0000006
 7,0.00037470,0.00043669,0.00183963,-0.00103770,0.00106800,-0.00119920,
 -0.00486642,-0.01236600,-0.00002065,0.00006897,-0.00016807,-0.00060527
 ,-0.00007082,-0.00039310,-0.00017709,-0.00112297,-0.00085310,0.0029649
 4,0.00430199,0.00430974,0.00029689,0.00271393,-0.02170027,-0.05202166,
 0.00587433,-0.02884107,-0.00023207,-0.00012112,-0.00000573,-0.00015538
 ,0.00007211,-0.00002122,0.00020509,0.00036027,0.00047910,0.00008887,-0
 .00007157,-0.00166234,-0.00230096,0.00269388,-0.00082186,0.06213654,-0
 .00398258,0.00170273,0.00494256,-0.00012993,-0.00006009,-0.00009080,-0
 .00009338,-0.00007660,-0.00059238,-0.00104059,0.00063935,-0.00134742,-
 0.01036296,-0.00873759,-0.04079675,0.00005653,-0.00010378,0.00005182,0
 .00022819,-0.00015118,-0.00002598,0.00014071,0.00092889,0.00182792,0.0
 0038543,0.00158621,0.00208798,0.00391013,-0.00033411,0.02409966,0.0066
 6471,-0.05193160,0.02357158,-0.00024561,0.00008793,0.00000700,0.000020
 37,0.00008784,-0.00016989,0.00002372,-0.00049035,-0.00061247,-0.000029
 46,0.00014295,-0.00066148,0.00261386,-0.00290090,0.00110035,0.00241745
 ,0.06527867,0.01234636,0.00456310,-0.01402004,-0.00002592,0.00033696,0
 .00013249,0.00007169,-0.00010656,0.00061356,-0.00054439,-0.00024522,0.
 00145893,-0.00559123,-0.00759765,-0.01239842,0.00008431,0.00002232,0.0
 0011747,0.00033080,0.00000833,0.00002506,-0.00029844,-0.00054902,-0.00
 083290,-0.00142708,-0.00181443,-0.00015533,-0.00044001,0.00129958,-0.0
 1015555,-0.02853949,0.01217931,-0.29337100,0.00019193,0.00024345,0.000
 69918,-0.00011924,-0.00025310,0.00009361,0.00014975,0.00066354,0.00080
 343,0.00104863,0.00142792,0.00067838,-0.00039006,0.00101835,0.00033114
 ,0.02299185,-0.00953204,0.32475080,0.00305289,0.00134677,-0.00121454,0
 .00016647,0.00015149,-0.00012022,-0.00015082,0.00007075,-0.00018283,0.
 00005813,-0.00006179,-0.00004975,0.00003390,-0.00000136,-0.00017109,-0
 .00547697,0.01079372,-0.02400761,0.00177599,-0.00118932,0.00139557,0.0
 0001629,-0.00010122,0.00007161,-0.00198553,0.00142731,0.03364597,0.000
 09720,0.00009665,0.00003632,-0.00031480,-0.00009252,0.00047978,-0.0498
 9701,-0.00346497,-0.01501411,-0.00029221,0.00040894,-0.00074858,0.0000
 5733,0.00004704,-0.00027824,-0.00528472,-0.00060958,0.00224232,-0.0000
 2923,-0.00000657,-0.00005909,0.00007206,0.00002150,-0.00034761,0.05808
 302,0.00096083,0.00077059,0.00070079,0.00040991,-0.00039199,0.00033207
 ,-0.00005675,-0.00004712,0.00005154,0.00007379,-0.00003736,-0.00002395
 ,0.00009850,0.00008129,-0.00005286,0.01227004,-0.00982639,0.03356321,-
 0.00031869,0.00007263,-0.00098471,0.00005433,0.00016159,-0.00011641,-0
 .00227382,0.00079243,0.00167247,-0.00001635,0.00004398,0.00002006,-0.0
 0032391,-0.00010785,0.00020953,-0.00422342,-0.05078976,-0.01103176,0.0
 0027716,-0.00000196,0.00009128,0.00002926,-0.00002956,0.00005191,0.000
 44178,0.00058732,0.00032021,-0.00000226,0.00000747,-0.00001393,-0.0000
 1399,-0.00006109,-0.00011350,-0.00672380,0.05604432,-0.00081393,-0.000
 12810,0.00193880,0.00043372,-0.00024415,0.00035697,0.00028852,-0.00011
 180,0.00012310,-0.00002168,-0.00001012,0.00007172,0.00013711,0.0000287
 4,0.00005786,-0.00780354,0.01184367,-0.00614413,-0.00044225,0.00072014
 ,-0.00054524,0.00005670,-0.00021661,0.00043499,-0.00032103,-0.00255104
 ,-0.01773376,-0.00001920,-0.00001421,-0.00012195,-0.00014423,0.0001431
 6,0.00029513,-0.01315457,-0.00767698,-0.29310459,0.00077211,-0.0006515
 1,0.00058679,-0.00027192,0.00000359,0.00016677,0.00247810,0.00023098,-
 0.00005300,0.00005718,0.00001756,0.00007618,-0.00027496,-0.00010415,0.
 00014637,0.01960436,-0.00095164,0.32161216,-0.00843317,-0.00142226,0.0
 0413697,0.00184645,0.00076664,0.00037219,0.00015870,0.00025133,-0.0000
 0758,-0.00013494,0.00030499,0.00003678,-0.00093443,-0.00085614,-0.0000
 5407,0.01054827,0.02462124,0.00525445,-0.00094510,-0.00152939,-0.00089
 862,-0.00004387,-0.00012946,0.00000826,-0.00842851,-0.02339414,-0.0132
 0864,0.00009139,-0.00036255,0.00012529,0.00163030,-0.00033628,-0.00131
 294,-0.11402196,-0.11232842,-0.03770579,-0.00002220,0.00016763,0.00005
 731,0.00002455,0.00000150,0.00002212,0.00103091,0.00017805,0.00058821,
 0.00000250,0.00002377,0.00002252,-0.00014457,0.00001204,0.00017657,0.0
 0040097,-0.00057283,0.00055324,0.12033451,0.00088414,0.00112519,0.0001
 7478,0.00155863,-0.00067671,-0.00005323,-0.00007890,0.00008917,0.00000
 292,-0.00003072,0.00002262,0.00001011,0.00006813,0.00013259,-0.0000073
 8,-0.00764997,-0.03240228,-0.00393935,-0.00086524,-0.00057177,0.000148
 70,-0.00001458,0.00007952,-0.00003811,-0.00261661,-0.00050410,-0.00068
 943,0.00003981,0.00001254,-0.00000715,0.00031850,0.00022174,-0.0000561
 7,-0.10471994,-0.22634902,-0.06659123,-0.00007660,-0.00004575,0.000075
 80,-0.00001884,-0.00000173,0.00002123,-0.00018756,0.00017691,0.0002778
 8,-0.00000014,-0.00000661,-0.00000269,0.00000209,-0.00000853,0.0000085
 4,-0.00075692,0.00142384,-0.00062155,0.11009786,0.25999840,0.00310132,
 0.00036312,-0.00053671,0.00043283,-0.00009309,-0.00023143,-0.00011969,
 0.00004308,-0.00002141,-0.00000314,-0.00003303,0.00001695,0.00029598,0
 .00027039,-0.00006867,0.00539292,0.01287127,0.00501179,-0.00074509,-0.
 00039235,0.00030150,0.00008080,0.00014968,-0.00010300,0.00655968,0.011
 77080,0.00350551,0.00001482,0.00002738,-0.00007708,0.00013951,0.000386
 67,0.00095993,-0.04057331,-0.07304709,-0.07777884,0.00000318,-0.000155
 07,0.00000835,0.00002257,-0.00000217,-0.00000908,-0.00063372,0.0003050
 5,0.00032499,0.00001469,0.00000193,0.00001667,-0.00012425,-0.00000933,
 0.00000069,-0.01578698,-0.02539780,-0.00820282,0.04232373,0.07002210,0
 .07704202,-0.00157158,-0.00028404,-0.00027094,-0.01960338,-0.00832230,
 -0.07070333,-0.00043476,0.00008018,0.00116737,0.00021881,0.00039083,0.
 00019530,-0.00040375,0.00021142,0.00006198,-0.00010734,-0.00057519,-0.
 00018606,-0.00392526,0.00064415,-0.01623297,0.00033870,0.00077603,-0.0
 0389791,0.00179204,0.00069031,0.00268574,-0.00031118,-0.00072024,0.000
 51921,0.00134163,-0.00023329,-0.00037497,0.00019096,0.00114736,0.00047
 778,-0.00022047,-0.00170590,0.00010092,-0.00057542,-0.00050194,0.00148
 438,0.00046891,-0.00027621,-0.00032502,0.00012171,0.00041903,0.0002652
 6,-0.00002951,0.00000228,0.00006769,-0.00011082,-0.00029758,-0.0002459
 7,-0.00071166,-0.00004618,0.00032523,0.02396278,0.00113161,0.00109795,
 0.00152358,0.00077227,-0.04538019,0.07424492,0.00085321,-0.00062829,0.
 00019771,0.00027182,-0.00011040,0.00003064,0.00034796,0.00031611,0.000
 10649,-0.00028356,0.00036122,0.00016211,-0.00785662,-0.00159667,-0.042
 77443,-0.00017842,0.00109885,-0.00138728,-0.00062368,0.00017255,-0.004
 58085,-0.00016176,-0.00016828,0.00013905,-0.00111018,-0.00034520,0.000
 08775,0.00068146,-0.00045390,0.00003211,-0.00241977,-0.00546045,-0.001
 97050,-0.00052479,0.00004729,0.00108142,0.00037916,-0.00075231,0.00188
 760,0.00006407,0.00017219,0.00017329,0.00003229,-0.00007034,0.00002573
 ,-0.00023741,0.00013171,0.00030625,0.00031194,0.00011178,-0.00007469,0
 .00869757,0.05124000,-0.00003881,0.00167599,-0.00008481,-0.08519196,0.
 02823921,-0.50411989,0.00021270,0.00035076,-0.00047619,0.00046577,0.00
 022718,-0.00010743,0.00018503,0.00023109,-0.00000427,-0.00017747,0.000
 44824,-0.00002889,-0.00139745,0.00262202,-0.01797363,0.00011493,0.0013
 5552,0.00330847,0.00143960,0.00013585,0.00307970,0.00039830,-0.0001422
 0,-0.00007370,-0.00055757,-0.00039619,0.00031978,0.00005793,-0.0005312
 9,-0.00030343,-0.00136345,-0.00341836,0.00108417,-0.00091786,-0.000130
 38,-0.00036125,0.00051086,-0.00100708,-0.00052946,0.00007872,0.0001381
 9,0.00000110,0.00001539,0.00000749,-0.00006810,0.00000063,0.00012523,0
 .00010115,0.00050657,-0.00004467,-0.00006710,0.08646933,-0.02980262,0.
 51643897,-0.00069959,-0.00126312,0.00008406,0.00302387,-0.00285366,-0.
 00006363,-0.12452886,-0.20661477,-0.05154868,0.00038320,-0.00118233,0.
 00019604,-0.00057047,0.00072435,0.00000002,0.00022404,-0.00040134,0.00
 002096,0.00008749,0.00561214,0.00171242,0.00987228,0.03019668,0.004527
 35,0.00005102,0.00057737,-0.00013959,-0.00557566,0.00375940,-0.0017295
 7,0.00224423,0.00087684,0.00023629,-0.00018512,0.00023430,0.00008571,-
 0.00024964,-0.00013423,0.00019429,-0.00025239,0.00010020,-0.00100330,0
 .00006578,-0.00008077,0.00000439,-0.00003816,-0.00016031,0.00009752,-0
 .00006193,-0.00002450,0.00003095,-0.00001381,-0.00001140,0.00000740,-0
 .00018675,-0.00003614,-0.00001042,-0.00050098,-0.00006386,-0.00070363,
 0.11594531,0.00032313,0.00030728,0.00001986,-0.00001662,-0.00024584,0.
 00000862,-0.16094446,-0.41979734,-0.06418441,0.00062891,0.00128423,-0.
 00028136,0.00033435,-0.00041651,0.00006371,-0.00045407,0.00027412,0.00
 006500,-0.00073717,0.00165353,-0.00090177,-0.01024540,-0.02998837,-0.0
 0528434,-0.00122104,-0.00125049,0.00012564,0.00447291,-0.00357863,0.00
 320265,-0.00153302,-0.00071539,-0.00070212,0.00034949,0.00032333,-0.00
 018160,0.00040162,-0.00005749,-0.00018022,-0.00095887,0.00074499,-0.00
 026978,-0.00002928,0.00005125,0.00001006,0.00007967,0.00041150,0.00013
 963,0.00005072,-0.00001055,0.00010236,-0.00002436,-0.00000301,0.000034
 92,0.00001428,-0.00000622,-0.00003927,0.00013001,0.00030498,-0.0000453
 6,0.16983301,0.45131273,0.00024079,0.00003787,-0.00016000,0.00150038,-
 0.00092411,-0.00226141,-0.05193475,-0.08473726,-0.02654876,-0.00003727
 ,0.00027281,0.00004297,-0.00004589,0.00014974,-0.00005155,-0.00012829,
 0.00010308,-0.00005759,-0.00042289,0.00018760,0.00212566,0.00431297,0.
 01509125,0.00126117,-0.00015762,-0.00063891,-0.00016494,-0.00067967,0.
 00040333,-0.00080060,-0.00009572,0.00017100,0.00087487,0.00010327,0.00
 006414,-0.00001751,0.00047748,-0.00038003,-0.00057507,-0.00001206,0.00
 125098,-0.00041428,-0.00012964,0.00018008,-0.00017179,-0.00002503,0.00
 010666,0.00020123,0.00009888,-0.00006551,-0.00004188,0.00002305,-0.000
 02577,-0.00006248,-0.00001454,-0.00000352,0.00001041,-0.00144646,0.000
 72910,-0.00010372,0.04869541,0.06823273,0.02720697,-0.00274254,0.00090
 837,-0.00020333,0.00114641,0.00045792,0.00007137,0.00044336,0.00060808
 ,0.00006454,-0.18142490,0.19790966,-0.02322500,0.00103911,-0.00062423,
 -0.00017357,0.00021988,-0.00027034,-0.00000386,-0.00083303,0.00057869,
 0.00032982,-0.00099647,0.00136643,-0.00143747,0.00043579,0.00108396,0.
 00016463,-0.03014814,0.03289440,-0.00538567,-0.00413768,-0.00398885,0.
 00415419,-0.00025626,-0.00002636,0.00000047,0.00005569,0.00001561,-0.0
 0006601,-0.00020936,-0.00038123,-0.00012587,-0.00003053,-0.00009045,-0
 .00005279,0.00094140,0.00025723,0.00011616,0.00028897,-0.00013971,-0.0
 0015774,0.00002252,-0.00000068,-0.00000360,-0.00006811,-0.00000058,0.0
 0001763,-0.00021260,-0.00004490,-0.00007437,0.00086570,-0.00049132,-0.
 00025403,0.21578989,-0.00193903,0.00027502,0.00019593,0.00011640,-0.00
 048530,-0.00012528,0.00138636,0.00021014,-0.00005595,0.24423818,-0.361
 85236,0.06988317,0.00034504,0.00020174,-0.00000517,0.00007547,-0.00014
 605,-0.00000640,0.00052558,-0.00048932,0.00029545,-0.00527533,0.003104
 32,-0.00017028,0.00067278,0.00077005,0.00012754,-0.00857787,0.00740611
 ,-0.00047662,-0.00147152,-0.00146735,-0.00002608,-0.00010343,-0.000087
 67,0.00003513,-0.00001247,0.00004874,-0.00000917,0.00020195,-0.0002107
 4,0.00011254,0.00000207,-0.00005373,-0.00007338,-0.00070725,-0.0001671
 3,0.00104698,-0.00006203,0.00004411,-0.00010164,0.00001834,0.00001165,
 -0.00000983,-0.00006027,-0.00001043,0.00000124,-0.00015682,0.00002491,
 0.00000627,0.00088441,-0.00049003,-0.00019736,-0.23032528,0.35346667,0
 .00083213,-0.00026871,0.00042842,0.00019262,0.00017587,-0.00013807,0.0
 0053407,-0.00042513,-0.00137359,-0.04287684,0.08499356,-0.02740575,-0.
 00020971,-0.00010650,0.00005180,0.00004124,-0.00002123,-0.00003587,-0.
 00038402,0.00011539,-0.00006925,0.00043042,0.00057811,0.00217441,-0.00
 003339,0.00012641,0.00004636,0.01443557,-0.01489130,0.00107853,0.00081
 533,0.00124546,-0.00162041,-0.00003231,-0.00001336,0.00005272,0.000209
 93,0.00003978,-0.00014626,-0.00064181,-0.00014568,-0.00055511,0.000008
 42,0.00001647,-0.00003767,0.00106688,-0.00068019,-0.00026425,0.0001903
 0,-0.00014000,0.00013158,0.00000765,0.00000115,-0.00002114,-0.00001209
 ,-0.00000125,-0.00000419,-0.00010974,-0.00001973,0.00001466,-0.0006376
 5,0.00005084,-0.00030810,0.02604205,-0.07057285,0.02784126,0.00079062,
 0.00151001,-0.00071612,-0.00044526,0.00032299,0.00007702,-0.00038051,-
 0.00013468,-0.00005680,-0.00125964,-0.00056759,-0.00050588,-0.04299750
 ,-0.00434030,-0.12998772,0.00005809,0.00015209,0.00007233,0.00054079,-
 0.00028252,0.00001843,0.00018650,0.00032308,0.00006962,-0.00100648,-0.
 00148892,0.00013922,0.00188085,0.00054813,0.00284365,-0.00467420,-0.00
 123343,-0.01401069,0.00007360,0.00000677,-0.00000027,0.00001081,-0.000
 02524,0.00000701,-0.00006659,-0.00008096,-0.00011364,0.00009595,0.0004
 0204,0.00036654,0.00055045,-0.00035070,-0.00020547,0.00186474,-0.00047
 569,0.00060768,-0.00005600,-0.00006696,0.00003478,0.00010082,0.0000235
 7,0.00003257,0.00012673,-0.00010304,-0.00004034,0.00007528,-0.00000850
 ,-0.00005481,-0.00023700,0.00014445,0.00014513,0.04502893,0.00066035,0
 .00041779,0.00092678,0.00036667,0.00029771,0.00008848,0.00004212,0.000
 53369,0.00011009,-0.00053655,-0.00009091,0.00091297,0.00937550,-0.0456
 8566,0.05768203,0.00024894,-0.00019192,-0.00002604,-0.00037542,-0.0000
 9861,-0.00005634,-0.00049812,-0.00074581,0.00030765,-0.00052123,-0.000
 38706,-0.00003149,0.00064065,0.00186941,-0.00404598,-0.01366166,-0.004
 99908,-0.04832469,-0.00014322,0.00006485,0.00010868,-0.00001986,-0.000
 04076,0.00004890,0.00018272,0.00037419,0.00038458,0.00013091,0.0001788
 0,0.00026928,0.00038002,-0.00072199,0.00207607,-0.00206513,-0.00559004
 ,-0.00164575,-0.00004055,-0.00001272,0.00002423,0.00000447,-0.00000815
 ,-0.00000030,-0.00009719,-0.00002299,-0.00003576,-0.00003488,-0.000027
 63,0.00001704,0.00026833,-0.00012450,-0.00007473,0.00578511,0.05489529
 ,0.00099703,0.00171944,0.00089188,0.00012422,0.00023423,0.00000278,0.0
 0004878,0.00067604,-0.00001810,0.00057572,0.00035615,-0.00051873,-0.13
 879911,0.00792085,-0.48359940,0.00013467,-0.00005874,-0.00007605,-0.00
 012725,-0.00016479,0.00015747,-0.00085337,0.00037317,-0.00018209,0.000
 28807,0.00021005,-0.00044348,0.00086856,0.00148087,0.00425729,-0.00444
 947,-0.00013766,-0.01793407,-0.00004055,0.00023563,0.00023547,0.000024
 47,0.00001101,-0.00002880,0.00002747,0.00017312,0.00001170,0.00012414,
 0.00013099,-0.00000575,0.00074323,-0.00104003,-0.00046097,-0.00115766,
 -0.00348873,0.00125371,-0.00001373,0.00000654,-0.00004030,0.00008659,-
 0.00000747,-0.00004098,-0.00003881,-0.00003117,-0.00003045,-0.00007261
 ,0.00005134,0.00000218,0.00017466,0.00011624,0.00013258,0.14144384,-0.
 00878960,0.49634861,0.00229003,-0.00076089,-0.00068584,-0.00043961,-0.
 00086367,-0.00013982,0.00008318,-0.00038576,0.00006360,0.00067973,-0.0
 0044584,-0.00005508,0.00063018,0.00055852,0.00018118,-0.17101475,-0.23
 290095,-0.06948651,-0.00017059,0.00030286,-0.00015002,-0.00006913,0.00
 044634,0.00003938,0.00115002,0.00568539,0.00104714,0.00005977,0.000651
 39,-0.00040209,-0.00249847,-0.00243142,0.00116767,0.01024650,0.0265710
 3,0.00407009,0.00009593,-0.00006031,0.00003989,-0.00001887,-0.00003196
 ,-0.00000297,-0.00023536,-0.00025518,-0.00009536,0.00000787,-0.0000026
 1,-0.00000762,0.00018728,0.00002750,-0.00021701,-0.00022483,0.00028685
 ,-0.00090632,-0.00209411,0.00410618,-0.00076088,0.00015643,0.00006463,
 0.00000716,0.00002516,0.00004601,-0.00001354,0.00004786,0.00008027,-0.
 00001418,-0.00026098,-0.00009200,-0.00010888,0.16136673,-0.00113046,-0
 .00018574,0.00028269,0.00024798,0.00021854,0.00012157,-0.00047415,0.00
 016379,0.00001222,-0.00030774,-0.00003192,0.00002284,0.00002427,-0.000
 77691,-0.00024921,-0.18500340,-0.36520597,-0.07243025,-0.00104110,-0.0
 0110678,0.00010133,0.00026705,0.00028994,-0.00014577,-0.00103377,0.000
 52541,-0.00112721,0.00005545,-0.00003848,0.00009326,0.00100342,0.00146
 870,-0.00022212,-0.01538670,-0.03498785,-0.00739131,-0.00000827,0.0000
 0211,0.00000834,-0.00002066,-0.00001865,0.00002080,0.00026336,-0.00008
 020,-0.00011616,0.00000557,-0.00001628,-0.00000681,-0.00009421,0.00002
 804,0.00005940,-0.00107215,0.00117998,-0.00006154,0.00423599,-0.002802
 99,0.00303147,0.00002772,-0.00009052,-0.00000912,0.00006260,-0.0000804
 5,-0.00002494,0.00003525,0.00002115,0.00001763,-0.00005970,0.00011611,
 0.00002255,0.19940363,0.40140895,-0.00036229,0.00105613,-0.00149933,0.
 00002307,0.00014722,0.00004180,-0.00020031,0.00013248,-0.00005880,-0.0
 0007005,-0.00001465,-0.00004951,-0.00012643,-0.00017421,-0.00028174,-0
 .07097759,-0.09464328,-0.03711513,-0.00008133,-0.00050531,0.00000684,0
 .00009673,0.00003361,-0.00008221,-0.00105187,-0.00106588,0.00153457,0.
 00008423,0.00001526,0.00001181,0.00048633,-0.00036078,0.00009178,0.005
 90650,0.01474962,0.00211639,-0.00012424,0.00015729,-0.00011717,0.00002
 030,-0.00000754,-0.00005395,0.00043452,-0.00031069,-0.00055243,-0.0000
 3338,0.00001253,-0.00005474,0.00022530,-0.00005945,-0.00019317,0.00048
 710,0.00156635,0.00006142,-0.00105652,0.00132115,-0.00005750,0.0000120
 2,-0.00008647,-0.00001569,0.00001625,-0.00003715,0.00001422,0.00002777
 ,0.00000954,0.00002733,-0.00016609,0.00007389,0.00008549,0.06642999,0.
 07799035,0.03613972\\0.00002103,0.00000193,0.00000351,-0.00000390,0.00
 000129,0.00000123,0.00000591,0.00000635,0.00002885,0.00000009,-0.00000
 519,-0.00003038,-0.00000620,0.00000128,0.00000434,0.00000055,0.0000034
 2,-0.00000121,0.00000597,0.00000284,0.00001357,-0.00001117,-0.00000335
 ,-0.00004704,0.00000122,-0.00000422,-0.00000490,0.00000187,0.00001251,
 0.00001825,-0.00000630,-0.00000863,-0.00000175,0.00000267,-0.00000028,
 0.00000187,-0.00000113,-0.00000019,0.00000239,0.00001247,0.00001618,0.
 00000813,-0.00000056,-0.00000162,0.00000021,-0.00000148,-0.00000034,0.
 00000408,-0.00000332,-0.00000844,-0.00000593,-0.00000096,0.00000308,0.
 00000149,-0.00000079,0.00000146,0.00000181,0.00000102,-0.00000081,0.00
 000124,0.00000048,0.00000007,-0.00000933,-0.00001992,-0.00002014,0.000
 01116,0.00000307,0.00000102,-0.00000280,-0.00000060,0.00000180,0.00000
 122\\\@


 YOU SHOULDN'T LET PEOPLE DRIVE YOU CRAZY
 WHEN YOU KNOW IT'S WITHIN WALKING DISTANCE.
 Job cpu time:       0 days  1 hours 52 minutes 10.9 seconds.
 Elapsed time:       0 days  0 hours  4 minutes  0.8 seconds.
 File lengths (MBytes):  RWF=    259 Int=      0 D2E=      0 Chk=     11 Scr=      1
 Normal termination of Gaussian 16 at Fri Nov  1 11:08:40 2024.
