24
XYZ FILE GENERATED BY CARP
O       -0.621148        1.088043       -0.838527        
O       -0.736655       -2.146978       -1.347605        
O        1.535343       -1.314253        1.139768        
O        2.520225        0.456549       -1.389413        
O        1.180478        2.283881       -1.245747        
O       -2.228122        1.050332        1.620266        
C       -0.415227       -1.362243       -0.202165        
C        1.085600       -1.070901       -0.194005        
C       -1.221415       -0.061724       -0.239670        
C        1.710979        0.323900       -0.221058        
C        0.639038        1.413207       -0.254874        
C       -1.460559       -0.086169        1.268036        
H       -0.676335       -1.953545        0.684049        
H        1.555299       -1.836544       -0.823725        
H       -2.198278       -0.050163       -0.737840        
H        2.376134        0.450433        0.641657        
H        0.541808        2.001103        0.666026        
H       -0.519070       -0.039206        1.825422        
H       -2.008685       -0.981006        1.576336        
H       -0.514976       -1.627642       -2.139177        
H        1.230735       -2.202818        1.392092        
H        1.947851        0.340532       -2.167052        
H        0.969271        1.922977       -2.122793        
H       -1.731937        1.838748        1.340805        
