24
XYZ FILE GENERATED BY CARP
O       -0.659632        1.148446        0.272644        
O       -0.851697       -2.385984       -0.765648        
O        1.671270       -1.520106        1.028961        
O        2.321971        0.416366       -1.637052        
O        0.673331        1.410022       -1.680269        
O       -3.452212        0.760861       -0.009335        
C       -0.400846       -1.318514        0.064052        
C        1.085600       -1.070900       -0.194000        
C       -1.221100       -0.062100       -0.237500        
C        1.701371        0.318965       -0.355297        
C        0.638800        1.413200       -0.253400        
C       -2.594510       -0.294776        0.384150        
H       -0.542607       -1.630831        1.105950        
H        1.444423       -1.750210       -0.977051        
H       -1.346049       -0.012662       -1.327814        
H        2.491248        0.464141        0.391521        
H        0.903776        2.427153        0.067610        
H       -2.544889       -0.294700        1.478145        
H       -3.035076       -1.238828        0.051147        
H       -0.736418       -2.115219       -1.692381        
H        1.355546       -2.426339        1.187273        
H        1.636848        0.283389       -2.314339        
H        0.134932        0.667461       -2.000894        
H       -3.050310        1.594083        0.290855        
