24
XYZ FILE GENERATED BY CARP
O       -0.762344        1.274275       -0.026891        
O       -0.335992       -1.266475       -2.130542        
O        1.029467       -0.592616        1.150812        
O        1.561412        0.267428       -2.144757        
O        0.827834        2.066829       -1.508068        
O       -2.738276        0.535898        1.507176        
C       -0.346446       -1.227801       -0.705918        
C        1.085600       -1.070901       -0.194005        
C       -1.221415       -0.061724       -0.239670        
C        1.559814        0.284844       -0.717444        
C        0.638800        1.413200       -0.253400        
C       -1.804090       -0.453617        1.116012        
H       -0.756109       -2.182933       -0.355076        
H        1.842166       -1.865105       -0.208888        
H       -2.050627        0.030457       -0.951342        
H        2.594546        0.463766       -0.401159        
H        0.962255        2.116842        0.522245        
H       -1.028603       -0.504463        1.887583        
H       -2.320773       -1.416562        1.071276        
H        0.019405       -0.420151       -2.451271        
H        0.758218       -1.337956        1.713744        
H        0.651143        0.102971       -2.445019        
H        0.259514        1.637590       -2.169003        
H       -2.268391        1.386695        1.542534        
