24
XYZ FILE GENERATED BY CARP
O       -0.632540        1.114334        0.318028        
O       -0.736655       -2.146978       -1.347605        
O        1.588723       -1.272208        1.127654        
O        2.520225        0.456549       -1.389413        
O        0.551374        1.370782       -1.677398        
O       -3.370610        0.557794        0.600954        
C       -0.415227       -1.362243       -0.202165        
C        1.085600       -1.070901       -0.194005        
C       -1.221415       -0.061724       -0.239670        
C        1.710979        0.323900       -0.221058        
C        0.639038        1.413207       -0.254874        
C       -2.403011       -0.475405        0.634209        
H       -0.676335       -1.953545        0.684049        
H        1.543862       -1.845552       -0.821130        
H       -1.597285        0.122242       -1.253300        
H        2.376134        0.450433        0.641657        
H        0.994826        2.415883        0.011937        
H       -2.101525       -0.617238        1.677414        
H       -2.870023       -1.396368        0.273721        
H       -0.514976       -1.627642       -2.139177        
H        1.308251       -2.158392        1.414035        
H        1.947851        0.340532       -2.167052        
H       -0.058707        0.657345       -1.928155        
H       -2.944279        1.370754        0.922256        
