24
XYZ FILE GENERATED BY CARP
O       -0.687675        1.173125       -0.717697        
O       -0.336801       -1.267457       -2.129844        
O        1.566748       -2.112104        0.657365        
O        2.406076        0.496460        1.079852        
O        1.233955        0.894246       -1.442363        
O       -2.273478        0.238123        1.886070        
C       -0.346681       -1.227835       -0.705241        
C        1.085600       -1.070900       -0.194000        
C       -1.221100       -0.062100       -0.237500        
C        1.085676        0.231231        0.606857        
C        0.638800        1.413200       -0.253400        
C       -1.190063       -0.411918        1.246921        
H       -0.756410       -2.182645       -0.353603        
H        1.681458       -1.122647       -1.113598        
H       -2.192462       -0.379443       -0.640725        
H        0.447361        0.122835        1.492025        
H        1.071156        2.407136       -0.090549        
H       -0.265826       -0.065631        1.721428        
H       -1.288964       -1.488671        1.411380        
H        0.018650       -0.421422       -2.451275        
H        1.418446       -2.956126        0.197327        
H        2.989716        0.589415        0.307506        
H        0.656145        0.199502       -1.799485        
H       -2.175572        1.193479        1.732428        
