24
XYZ FILE GENERATED BY CARP
O       -0.595129        1.054799       -0.871227        
O       -0.862102       -2.359415        0.402267        
O        1.856165       -1.876982        0.698688        
O        2.520009        0.457916       -1.389058        
O        1.077402        2.278097       -1.300652        
O       -3.140379        1.098987        0.584344        
C       -0.292941       -1.054410        0.466893        
C        1.085600       -1.070900       -0.194000        
C       -1.221100       -0.062100       -0.237500        
C        1.710755        0.323867       -0.220870        
C        0.638800        1.413200       -0.253400        
C       -2.145795        0.161761        0.954836        
H       -0.185393       -0.795859        1.527447        
H        1.065114       -1.603530       -1.152786        
H       -1.832176       -0.415527       -1.079235        
H        2.375899        0.449383        0.642002        
H        0.569279        2.024269        0.653861        
H       -1.602448        0.572685        1.812276        
H       -2.641710       -0.763405        1.262018        
H       -0.967943       -2.594722       -0.535212        
H        1.398968       -2.730779        0.788141        
H        1.947644        0.342817       -2.166840        
H        0.831496        1.881219       -2.152760        
H       -2.688218        1.916052        0.312583        
