24
XYZ FILE GENERATED BY CARP
O       -0.687675        1.173125       -0.717697        
O       -0.336801       -1.267457       -2.129844        
O        1.088112       -1.010032        1.233137        
O        1.560596        0.267274       -2.145061        
O        1.308260        1.228805        0.993588        
O       -2.029546        1.055453        1.713057        
C       -0.346681       -1.227835       -0.705241        
C        1.085600       -1.070900       -0.194000        
C       -1.221100       -0.062100       -0.237500        
C        1.559605        0.284799       -0.717750        
C        0.638800        1.413200       -0.253400        
C       -1.225420       -0.029523        1.287545        
H       -0.756410       -2.182645       -0.353603        
H        1.738366       -1.908426       -0.469376        
H       -2.261263       -0.157225       -0.577874        
H        2.594474        0.463734       -0.401918        
H        0.709065        2.479776       -0.495968        
H       -0.217927        0.124072        1.688362        
H       -1.636942       -0.950108        1.711097        
H        0.018650       -0.421422       -2.451275        
H        0.726599       -1.851350        1.560997        
H        0.650197        0.102803       -2.444923        
H        1.561303        0.294101        1.073381        
H       -1.655125        1.867261        1.330077        
