24
XYZ FILE GENERATED BY CARP
O       -0.756314        1.261946       -0.505436        
O       -0.241262       -1.052288       -2.206073        
O        1.203381       -1.259097        1.217078        
O        2.680443        0.493537       -1.106131        
O        1.008506        1.788055       -1.580034        
O       -2.299560        0.586388        1.793157        
C       -0.319723       -1.169756       -0.787904        
C        1.085600       -1.070900       -0.194000        
C       -1.221100       -0.062100       -0.237500        
C        1.698893        0.325017       -0.083542        
C        0.638800        1.413200       -0.253400        
C       -1.341578       -0.311179        1.262595        
H       -0.741339       -2.157239       -0.563612        
H        1.618594       -1.906906       -0.663463        
H       -2.214352       -0.201816       -0.685575        
H        2.219798        0.426905        0.876144        
H        0.875697        2.265204        0.394157        
H       -0.392156       -0.128869        1.777036        
H       -1.669382       -1.332027        1.478554        
H        0.125204       -0.176213       -2.414961        
H        0.776769       -2.105714        1.434429        
H        2.237769        0.399779       -1.966969        
H        0.521072        1.227959       -2.206748        
H       -1.998383        1.489566        1.594514        
