24
XYZ FILE GENERATED BY CARP
O       -0.777169        1.292189       -0.138808        
O       -0.557721       -1.759134       -1.817323        
O        1.173942       -0.806230        1.206920        
O        1.328671        0.223869       -2.215747        
O        1.010764        2.075956       -1.461520        
O       -2.994705        0.763072        1.133849        
C       -0.395997       -1.330360       -0.467820        
C        1.085600       -1.070900       -0.194000        
C       -1.221100       -0.062100       -0.237500        
C        1.496476        0.271501       -0.799026        
C        0.638800        1.413200       -0.253400        
C       -2.043953       -0.280841        1.028164        
H       -0.749097       -2.142963        0.178854        
H        1.781128       -1.894302       -0.398046        
H       -1.911531       -0.040804       -1.091720        
H        2.561706        0.452827       -0.611612        
H        0.932573        2.071382        0.572345        
H       -1.415886       -0.252659        1.924838        
H       -2.580141       -1.233779        1.002939        
H       -0.253582       -1.041639       -2.398820        
H        0.898666       -1.613925        1.673667        
H        0.388947        0.056832       -2.402326        
H        0.483723        1.708700       -2.190504        
H       -2.507077        1.604318        1.154415        
