24
XYZ FILE GENERATED BY CARP
O       -0.606532        1.081888        0.357255        
O       -0.736906       -2.148520       -1.345762        
O        1.535099       -0.619939        1.084677        
O        1.027681        0.168587       -2.263611        
O        0.456423        2.005474       -1.539132        
O       -3.282782        0.918103        0.466266        
C       -0.415150       -1.362659       -0.201185        
C        1.085600       -1.070900       -0.194000        
C       -1.221305       -0.061851       -0.238419        
C        1.404136        0.252734       -0.889301        
C        0.638800        1.413200       -0.253400        
C       -2.498006       -0.255489        0.574254        
H       -0.675677       -1.953228        0.685687        
H        1.711526       -1.932857       -0.455976        
H       -1.508371        0.151339       -1.276199        
H        2.485669        0.433042       -0.867050        
H        1.083124        2.181880        0.389305        
H       -2.278562       -0.414104        1.635373        
H       -3.088175       -1.099540        0.206147        
H       -0.515743       -1.629841       -2.137909        
H        1.399656       -1.348657        1.714460        
H        0.070409        0.001889       -2.304053        
H       -0.219133        1.498913       -2.019850        
H       -2.748104        1.661000        0.795083        
