24
XYZ FILE GENERATED BY CARP
O       -0.416916        0.828602       -1.012645        
O       -0.891053       -2.449300       -0.147050        
O        1.895899       -2.019080        0.502276        
O        2.873335        0.549880       -0.200807        
O        1.242040        2.228384       -1.257757        
O       -2.627338        1.550695        0.824842        
C       -0.355824       -1.205501        0.297533        
C        1.085600       -1.070900       -0.194000        
C       -1.221100       -0.062100       -0.237500        
C        1.550532        0.306964        0.277428        
C        0.638800        1.413200       -0.253400        
C       -1.728270        0.489728        1.091073        
H       -0.367101       -1.217088        1.394314        
H        1.123571       -1.350402       -1.254104        
H       -2.090781       -0.391278       -0.822426        
H        1.600412        0.327376        1.372789        
H        0.035748        2.078826        0.374797        
H       -0.909348        0.890193        1.697935        
H       -2.256835       -0.272359        1.670787        
H       -0.891673       -2.445514       -1.119379        
H        1.501472       -2.897122        0.362742        
H        2.850793        0.529029       -1.172841        
H        1.492803        1.661897       -2.006275        
H       -2.147224        2.220863        0.308837        
