24
XYZ FILE GENERATED BY CARP
O       -0.774894        1.286633       -0.388278        
O       -0.851697       -2.385984       -0.765648        
O        1.804616       -1.982423        0.638209        
O        2.854972        0.552450        0.044807        
O        1.050667        1.285258       -1.613971        
O       -3.190395        0.810779        0.795527        
C       -0.400846       -1.318514        0.064052        
C        1.085600       -1.070900       -0.194000        
C       -1.221100       -0.062100       -0.237500        
C        1.485926        0.297272        0.358052        
C        0.638800        1.413200       -0.253400        
C       -2.234595       -0.229579        0.890161        
H       -0.542607       -1.630831        1.105950        
H        1.348048       -1.323349       -1.228783        
H       -1.766985       -0.084754       -1.190567        
H        1.405926        0.294284        1.451811        
H        0.885377        2.434928        0.057460        
H       -1.757044       -0.156052        1.872926        
H       -2.759649       -1.186738        0.823900        
H       -0.736418       -2.115219       -1.692381        
H        1.503343       -2.879898        0.415110        
H        2.947545        0.552398       -0.923297        
H        0.561859        0.548566       -2.016985        
H       -2.712506        1.655781        0.854611        
