24
XYZ FILE GENERATED BY CARP
O       -0.595133        1.055029       -0.871981        
O       -0.736538       -2.147735       -1.347079        
O        1.764025       -1.842334        0.798502        
O        2.790641        0.548146        0.348676        
O        1.450999        1.699087       -1.391714        
O       -2.203013        1.227932        1.516371        
C       -0.415144       -1.362674       -0.201851        
C        1.085600       -1.070900       -0.194000        
C       -1.221305       -0.061851       -0.238419        
C        1.391660        0.282458        0.447611        
C        0.638800        1.413200       -0.253400        
C       -1.444975        0.058503        1.266036        
H       -0.675936       -1.953870        0.684526        
H        1.448547       -1.428291       -1.165558        
H       -2.203999       -0.091935       -0.726528        
H        1.149745        0.249760        1.516782        
H        0.545094        2.347722        0.311621        
H       -0.497331        0.152593        1.806782        
H       -1.994230       -0.799662        1.663649        
H       -0.515138       -1.628496       -2.138793        
H        1.519876       -2.773641        0.660445        
H        3.026300        0.574426       -0.594493        
H        1.282492        1.023389       -2.069289        
H       -1.705918        1.983213        1.158120        
