24
XYZ FILE GENERATED BY CARP
O       -0.782175        1.297153       -0.263771        
O       -0.862102       -2.359415        0.402267        
O        1.988380       -1.019090        0.911773        
O        1.027681        0.168587       -2.263611        
O        1.062859        2.292465       -1.294660        
O       -3.478542        0.631018        0.124059        
C       -0.292941       -1.054410        0.466893        
C        1.085600       -1.070900       -0.194000        
C       -1.221100       -0.062100       -0.237500        
C        1.404136        0.252734       -0.889301        
C        0.638800        1.413200       -0.253400        
C       -2.500395       -0.295330        0.559902        
H       -0.185393       -0.795859        1.527447        
H        1.373597       -1.946959       -0.788107        
H       -1.459337       -0.180007       -1.303418        
H        2.485669        0.433042       -0.867050        
H        0.925600        1.883096        0.694389        
H       -2.340595       -0.133158        1.631094        
H       -2.892077       -1.305553        0.410708        
H       -0.967943       -2.594722       -0.535212        
H        1.868883       -1.837420        1.423688        
H        0.070409        0.001889       -2.304053        
H        0.547767        2.095406       -2.094609        
H       -3.119263        1.524445        0.260459        
