24
XYZ FILE GENERATED BY CARP
O       -0.756314        1.261946       -0.505436        
O       -0.804200       -2.290109       -1.060910        
O        1.486347       -1.050155        1.176913        
O        1.328671        0.223869       -2.215747        
O        0.882977        2.393137       -1.261991        
O       -2.945729        1.209903        0.818362        
C       -0.412044       -1.349659       -0.064453        
C        1.085600       -1.070900       -0.194000        
C       -1.221100       -0.062100       -0.237500        
C        1.496476        0.271501       -0.799026        
C        0.638800        1.413200       -0.253400        
C       -2.069350        0.115802        1.017754        
H       -0.614758       -1.804128        0.913072        
H        1.609030       -1.916568       -0.656872        
H       -1.900118       -0.222851       -1.085990        
H        2.561706        0.452827       -0.611612        
H        0.605834        1.945571        0.704126        
H       -1.449487        0.339443        1.892421        
H       -2.670610       -0.772943        1.229517        
H       -0.634635       -1.892818       -1.932027        
H        1.203374       -1.890953        1.575644        
H        0.388947        0.056832       -2.402326        
H        0.589045        2.036847       -2.116819        
H       -2.400676        1.993102        0.630175        
