24
XYZ FILE GENERATED BY CARP
O       -0.649937        1.124762       -0.790712        
O       -0.557721       -1.759134       -1.817323        
O        1.366862       -1.497164        1.140024        
O        2.680443        0.493537       -1.106131        
O        1.214025        1.997909       -1.421470        
O       -2.368823        0.717166        1.707406        
C       -0.395997       -1.330360       -0.467820        
C        1.085600       -1.070900       -0.194000        
C       -1.221100       -0.062100       -0.237500        
C        1.698893        0.325017       -0.083542        
C        0.638800        1.413200       -0.253400        
C       -1.369407       -0.188054        1.275438        
H       -0.749097       -2.142963        0.178854        
H        1.591470       -1.781450       -0.859281        
H       -2.198159       -0.273458       -0.693048        
H        2.219798        0.426905        0.876144        
H        0.702076        2.165365        0.541336        
H       -0.439136        0.069784        1.792549        
H       -1.668632       -1.197869        1.570332        
H       -0.253582       -1.041639       -2.398820        
H        0.996877       -2.390615        1.244221        
H        2.237769        0.399779       -1.966969        
H        0.882460        1.521787       -2.200855        
H       -2.092757        1.610333        1.439192        
