24
XYZ FILE GENERATED BY CARP
O       -0.782466        1.297435       -0.264397        
O       -0.735700       -2.145940       -1.350080        
O        1.649138       -1.853277        0.859917        
O        2.825689        0.551151        0.210956        
O        1.028907        1.214016       -1.611818        
O       -3.003064        0.622753        1.197976        
C       -0.415129       -1.362707       -0.203371        
C        1.085600       -1.070901       -0.194005        
C       -1.221305       -0.061851       -0.238419        
C        1.436411        0.289569        0.408462        
C        0.638800        1.413200       -0.253400        
C       -2.019663       -0.380662        1.022090        
H       -0.676520       -1.955332        0.681875        
H        1.512978       -1.455938       -1.128065        
H       -1.922335       -0.015517       -1.081778        
H        1.268053        0.270443        1.491979        
H        0.895951        2.447714        0.001580        
H       -1.381483       -0.382549        1.912038        
H       -2.524253       -1.348188        0.947879        
H       -0.513764       -1.625425       -2.140806        
H        1.380756       -2.776463        0.712608        
H        2.996404        0.565413       -0.746357        
H        0.529758        0.461077       -1.969592        
H       -2.543361        1.477457        1.261633        
