24
XYZ FILE GENERATED BY CARP
O       -0.782175        1.297153       -0.263771        
O       -0.117656       -0.772019       -2.260928        
O        1.184797       -1.748900        1.059358        
O        2.790890        0.548170        0.347820        
O        0.944231        1.119250       -1.616287        
O       -2.351105        0.046017        1.864542        
C       -0.280660       -1.084407       -0.879986        
C        1.085600       -1.070900       -0.194000        
C       -1.221100       -0.062100       -0.237500        
C        1.391949        0.282504        0.447375        
C        0.638800        1.413200       -0.253400        
C       -1.391443       -0.699500        1.137834        
H       -0.708295       -2.092749       -0.820272        
H        1.797386       -1.562032       -0.868933        
H       -2.202195       -0.054055       -0.731696        
H        1.150492        0.249891        1.516652        
H        1.064013        2.400481       -0.039315        
H       -0.455523       -0.683194        1.706232        
H       -1.741643       -1.733049        1.064606        
H        0.254760        0.123943       -2.324153        
H        0.933878       -2.676521        0.909159        
H        3.026145        0.574375       -0.595452        
H        0.320702        0.445419       -1.934458        
H       -2.029887        0.962193        1.922314        
