24
XYZ FILE GENERATED BY CARP
O       -0.606330        1.082158        0.357179        
O       -0.117656       -0.772019       -2.260928        
O        1.033965       -1.147991        1.231420        
O        2.520009        0.457916       -1.389058        
O        0.517424        1.251196       -1.666262        
O       -2.986227        0.035620        1.369349        
C       -0.280660       -1.084407       -0.879986        
C        1.085600       -1.070900       -0.194000        
C       -1.221100       -0.062100       -0.237500        
C        1.710755        0.323867       -0.220870        
C        0.638800        1.413200       -0.253400        
C       -1.984127       -0.817072        0.846312        
H       -0.708295       -2.092749       -0.820272        
H        1.649699       -1.949163       -0.531387        
H       -1.942279        0.251022       -1.004766        
H        2.375899        0.449383        0.642002        
H        0.886590        2.465948       -0.075402        
H       -1.326346       -1.105731        1.672924        
H       -2.467805       -1.714637        0.450513        
H        0.254760        0.123943       -2.324153        
H        0.565100       -1.968425        1.461756        
H        1.947644        0.342817       -2.166840        
H       -0.015243        0.457781       -1.841841        
H       -2.545046        0.829582        1.717028        
