24
XYZ FILE GENERATED BY CARP
O       -0.696014        1.193495        0.196872        
O       -0.891053       -2.449300       -0.147050        
O        1.682042       -0.353153        0.887446        
O        0.218014        0.025416       -2.160814        
O        0.451225        2.240475       -1.401262        
O       -3.439430        0.824334       -0.216781        
C       -0.355824       -1.205501        0.297533        
C        1.085600       -1.070900       -0.194000        
C       -1.221100       -0.062100       -0.237500        
C        1.100800        0.194287       -1.051897        
C        0.638800        1.413200       -0.253400        
C       -2.658607       -0.269604        0.228716        
H       -0.367101       -1.217088        1.394314        
H        1.871421       -1.713410       -0.609994        
H       -1.228630        0.024400       -1.332627        
H        2.104255        0.350116       -1.466041        
H        1.208481        2.003942        0.473133        
H       -2.724929       -0.304347        1.321273        
H       -3.088264       -1.188563       -0.180104        
H       -0.891673       -2.445514       -1.119379        
H        1.976045       -1.007620        1.544132        
H       -0.678217       -0.121015       -1.812789        
H       -0.306985        1.901898       -1.905795        
H       -3.047900        1.634801        0.151654        
