24
XYZ FILE GENERATED BY CARP
O       -0.760737        1.272750       -0.020348        
O       -0.885683       -2.426398        0.099290        
O        1.898874       -1.607732        0.850426        
O        2.321971        0.416366       -1.637052        
O        0.837337        1.629510       -1.650164        
O       -3.471498        0.735791       -0.158383        
C       -0.330353       -1.143789        0.378005        
C        1.085600       -1.070900       -0.194000        
C       -1.221100       -0.062100       -0.237500        
C        1.701371        0.318965       -0.355297        
C        0.638800        1.413200       -0.253400        
C       -2.605174       -0.248436        0.376062        
H       -0.288695       -1.034601        1.468662        
H        1.246632       -1.709612       -1.071211        
H       -1.319771       -0.143609       -1.328583        
H        2.491248        0.464141        0.391521        
H        0.948043        2.332755        0.256648        
H       -2.582770       -0.118887        1.463262        
H       -3.020441       -1.233938        0.146793        
H       -0.933214       -2.529592       -0.866386        
H        1.590848       -2.514103        1.022506        
H        1.636848        0.283389       -2.314339        
H        0.279879        1.004027       -2.142182        
H       -3.092088        1.606603        0.050501        
