24
XYZ FILE GENERATED BY CARP
O       -0.782558        1.297538       -0.266630        
O       -0.876751       -2.394471        0.260627        
O        1.911294       -1.609725        0.839599        
O        2.523163        0.458593       -1.384390        
O        1.049509        1.765419       -1.574163        
O       -3.409428        0.787331        0.208877        
C       -0.311510       -1.096704        0.426352        
C        1.085600       -1.070901       -0.194005        
C       -1.221415       -0.061724       -0.239670        
C        1.710732        0.323919       -0.218480        
C        0.638800        1.413200       -0.253400        
C       -2.468453       -0.182008        0.632908        
H       -0.235058       -0.907662        1.504132        
H        1.255578       -1.692467       -1.081776        
H       -1.523167       -0.205474       -1.284107        
H        2.373512        0.449054        0.646265        
H        0.815187        2.291592        0.378009        
H       -2.242024        0.010925        1.686850        
H       -2.929133       -1.170187        0.546307        
H       -0.955091       -2.568316       -0.692829        
H        1.620035       -2.524123        0.997855        
H        1.952929        0.343839       -2.163787        
H        0.610885        1.169236       -2.203642        
H       -2.988934        1.660613        0.289257        
