24
XYZ FILE GENERATED BY CARP
O       -0.777169        1.292189       -0.138808        
O       -0.241262       -1.052288       -2.206073        
O        1.070191       -0.904089        1.224579        
O        2.093998        0.370367       -1.845924        
O        0.851528        1.854214       -1.594075        
O       -2.675473        0.520256        1.566064        
C       -0.319723       -1.169756       -0.787904        
C        1.085600       -1.070900       -0.194000        
C       -1.221100       -0.062100       -0.237500        
C        1.672392        0.310687       -0.483495        
C        0.638800        1.413200       -0.253400        
C       -1.739108       -0.453842        1.142734        
H       -0.741339       -2.157239       -0.563612        
H        1.829482       -1.848693       -0.406277        
H       -2.082402        0.008735       -0.915721        
H        2.565516        0.471301        0.132340        
H        0.981131        2.220817        0.403810        
H       -0.930846       -0.483285        1.881065        
H       -2.237916       -1.427065        1.126857        
H        0.125204       -0.176213       -2.414961        
H        0.801812       -1.753681        1.614666        
H        1.314887        0.223214       -2.409063        
H        0.272448        1.342813       -2.183316        
H       -2.221572        1.380363        1.575362        
