24
XYZ FILE GENERATED BY CARP
O       -0.696014        1.193495        0.196872        
O       -0.891053       -2.449300       -0.147050        
O        1.939740       -2.091362        0.325165        
O        2.873335        0.549880       -0.200807        
O        1.752572        0.996518       -1.042731        
O       -3.456669        0.779635       -0.207582        
C       -0.355824       -1.205501        0.297533        
C        1.085600       -1.070900       -0.194000        
C       -1.221100       -0.062100       -0.237500        
C        1.550532        0.306964        0.277428        
C        0.638800        1.413200       -0.253400        
C       -2.642969       -0.275169        0.272139        
H       -0.367101       -1.217088        1.394314        
H        1.105690       -1.176050       -1.285753        
H       -1.255245       -0.029795       -1.335057        
H        1.600412        0.327376        1.372789        
H        0.397354        2.436920       -0.561723        
H       -2.683794       -0.257396        1.366353        
H       -3.062210       -1.221571       -0.081112        
H       -0.891673       -2.445514       -1.119379        
H        1.567548       -2.948154        0.054277        
H        2.850793        0.529029       -1.172841        
H        1.779979        0.025303       -1.050390        
H       -3.074153        1.614945        0.111535        
