24
XYZ FILE GENERATED BY CARP
O       -0.696491        1.193697        0.196418        
O       -0.562397       -1.769887       -1.807967        
O        1.525107       -1.576852        1.067457        
O        2.873320        0.549894       -0.199924        
O        0.747004        0.990038       -1.612216        
O       -3.184242        0.522608        0.991159        
C       -0.396782       -1.332137       -0.461822        
C        1.085600       -1.070901       -0.194005        
C       -1.221305       -0.061851       -0.238419        
C        1.550315        0.306930        0.277730        
C        0.638800        1.413200       -0.253400        
C       -2.191422       -0.478750        0.862929        
H       -0.748026       -2.140403        0.191266        
H        1.618386       -1.646321       -0.961080        
H       -1.795943        0.073659       -1.163769        
H        1.599729        0.327257        1.373113        
H        0.898291        2.477883       -0.231575        
H       -1.685335       -0.573064        1.829505        
H       -2.685816       -1.426078        0.629759        
H       -0.259927       -1.056292       -2.395105        
H        1.276916       -2.516460        1.106672        
H        2.851191        0.529119       -1.171970        
H        0.217527        0.183612       -1.727980        
H       -2.733418        1.359383        1.197222        
