24
XYZ FILE GENERATED BY CARP
O       -0.757719        1.264028       -0.500976        
O       -0.892031       -2.448028       -0.151029        
O        1.937932       -1.854899        0.642246        
O        2.873300        0.549920       -0.198705        
O        1.067636        1.536764       -1.609124        
O       -3.221870        0.769856        0.768369        
C       -0.356405       -1.205239        0.295894        
C        1.085600       -1.070901       -0.194005        
C       -1.221415       -0.061724       -0.239670        
C        1.550019        0.306887        0.278147        
C        0.638800        1.413200       -0.253400        
C       -2.208490       -0.207977        0.915863        
H       -0.368785       -1.218411        1.392645        
H        1.276468       -1.397510       -1.223699        
H       -1.777500       -0.178705       -1.177568        
H        1.598791        0.327099        1.373561        
H        0.823355        2.381098        0.226678        
H       -1.722684       -0.042266        1.883241        
H       -2.680316       -1.194669        0.922568        
H       -0.891677       -2.442829       -1.123352        
H        1.685266       -2.786595        0.523490        
H        2.851741        0.529246       -1.170766        
H        0.625427        0.851263       -2.136958        
H       -2.790989        1.641755        0.762790        
