24
XYZ FILE GENERATED BY CARP
O       -0.430815        0.862554        0.511751        
O       -0.336801       -1.267457       -2.129844        
O        1.129793       -0.712838        1.188125        
O        1.560596        0.267274       -2.145061        
O        0.075484        1.394606       -1.564691        
O       -3.195838        0.777946        0.812223        
C       -0.346681       -1.227835       -0.705241        
C        1.085600       -1.070900       -0.194000        
C       -1.221100       -0.062100       -0.237500        
C        1.559605        0.284799       -0.717750        
C        0.638800        1.413200       -0.253400        
C       -2.468789       -0.412112        0.567238        
H       -0.756410       -2.182645       -0.353603        
H        1.975647       -1.683410       -0.383820        
H       -1.542924        0.427050       -1.167018        
H        2.594474        0.463734       -0.401918        
H        1.019175        2.427492       -0.086404        
H       -2.210752       -0.851442        1.536616        
H       -3.117656       -1.107016        0.026586        
H        0.018650       -0.421422       -2.451275        
H        1.097598       -1.537059        1.703512        
H        0.650197        0.102803       -2.444923        
H       -0.551737        0.654698       -1.621259        
H       -2.609317        1.387723        1.291872        
