24
XYZ FILE GENERATED BY CARP
O       -0.659632        1.148446        0.272644        
O       -0.652849       -1.967381       -1.602355        
O        1.589517       -1.582654        1.040749        
O        2.790276        0.520261       -0.814690        
O        0.514295        1.113111       -1.643221        
O       -3.333233        0.599467        0.661614        
C       -0.409547       -1.355758       -0.338282        
C        1.085600       -1.070900       -0.194000        
C       -1.221100       -0.062100       -0.237500        
C        1.667579        0.322443        0.044348        
C        0.638800        1.413200       -0.253400        
C       -2.386982       -0.453839        0.664775        
H       -0.721068       -2.067794        0.435766        
H        1.504194       -1.704480       -0.985669        
H       -1.620436        0.134742       -1.241804        
H        2.038264        0.398976        1.073646        
H        0.996687        2.446820       -0.183337        
H       -2.060327       -0.606297        1.698865        
H       -2.882832       -1.363335        0.313815        
H       -0.386051       -1.340096       -2.295731        
H        1.272250       -2.497968        1.127605        
H        2.482085        0.449285       -1.734350        
H       -0.098926        0.366272       -1.744522        
H       -2.881371        1.401998        0.974122        
