24
XYZ FILE GENERATED BY CARP
O       -0.687758        1.173394       -0.718433        
O       -0.849638       -2.381457       -0.782772        
O        1.579084       -1.021170        1.145562        
O        1.561419        0.267430       -2.144754        
O        1.270386        2.422763       -1.040190        
O       -2.787034        1.119526        1.125186        
C       -0.401719       -1.320590        0.056924        
C        1.085600       -1.070901       -0.194005        
C       -1.221305       -0.061851       -0.238419        
C        1.559816        0.284845       -0.717442        
C        0.638800        1.413200       -0.253400        
C       -1.855357        0.053478        1.144540        
H       -0.547071       -1.641164        1.095816        
H        1.588645       -1.917040       -0.678120        
H       -2.024915       -0.226264       -0.967818        
H        2.594547        0.463766       -0.401153        
H        0.481183        1.840834        0.743419        
H       -1.107095        0.277711        1.912075        
H       -2.384800       -0.861598        1.424808        
H       -0.731163       -2.103347       -1.706924        
H        1.336746       -1.858857        1.576321        
H        0.651151        0.102972       -2.445019        
H        1.121579        2.221297       -1.978986        
H       -2.305744        1.926522        0.874157        
