 29
xyz test file
O          0.131      0.984      0.601
O          0.447     -2.595     -0.110
O          3.191     -1.709      0.097
O          3.462      1.050     -0.900
O          1.572      2.792      0.284
O         -2.523      0.296      0.757
O         -0.927      1.801      0.032
C          0.847     -1.322      0.392
C          2.116     -0.870     -0.331
C         -0.286     -0.315      0.179
C          2.448      0.587     -0.008
C          1.222      1.485     -0.169
C         -1.527     -0.684      0.986
C         -2.090      1.511      0.279
C         -3.247      2.445      0.094
H          1.060     -1.443      1.461
H          2.024     -1.014     -1.415
H         -0.564     -0.264     -0.882
H          2.860      0.658      1.005
H          0.919      1.584     -1.218
H         -1.305     -0.651      2.058
H         -1.889     -1.694      0.760
H          0.248     -2.495     -1.056
H          2.944     -2.627     -0.109
H          3.117      0.988     -1.807
H          2.148      2.706      1.062
H         -3.856      2.111     -0.613
H         -4.976      1.231      0.482
H         -5.041      0.965     -1.273
