24
XYZ FILE GENERATED BY CARP
O       -0.696726        1.194026        0.194735        
O       -0.892036       -2.447974       -0.149584        
O        1.778646       -1.373690        1.017789        
O        2.107102        0.371336       -1.836180        
O        0.743695        1.677653       -1.652077        
O       -3.530455        0.524534       -0.054942        
C       -0.356269       -1.204904        0.296387        
C        1.085600       -1.070901       -0.194005        
C       -1.221415       -0.061724       -0.239670        
C        1.674799        0.311121       -0.477131        
C        0.639038        1.413207       -0.254874        
C       -2.573595       -0.430622        0.365712        
H       -0.368339       -1.217370        1.393149        
H        1.425245       -1.803641       -0.936371        
H       -1.333051       -0.038843       -1.330349        
H        2.562987        0.471873        0.145765        
H        0.930126        2.333816        0.265587        
H       -2.542594       -0.412686        1.460246        
H       -2.907193       -1.419491        0.038488        
H       -0.891956       -2.443402       -1.121910        
H        1.524351       -2.274777        1.281185        
H        1.332503        0.224070       -2.405480        
H        0.191134        1.037045       -2.129955        
H       -3.223143        1.398754        0.240347        
