24
XYZ FILE GENERATED BY CARP
O       -0.687675        1.173125       -0.717697        
O       -0.711001       -1.982571        1.129038        
O        1.984286       -1.832808        0.613644        
O        1.560596        0.267274       -2.145061        
O        1.242668        2.230437       -1.255708        
O       -3.287310        1.136694       -0.266682        
C       -0.169311       -0.764949        0.623935        
C        1.085600       -1.070900       -0.194000        
C       -1.221100       -0.062100       -0.237500        
C        1.559605        0.284799       -0.717750        
C        0.638800        1.413200       -0.253400        
C       -2.508452        0.252128        0.518031        
H        0.100660       -0.143538        1.486578        
H        0.835863       -1.700001       -1.057277        
H       -1.494919       -0.498696       -1.207680        
H        2.594474        0.463734       -0.401918        
H        0.449934        2.059894        0.611168        
H       -2.302486        0.746301        1.473363        
H       -3.097386       -0.649851        0.707282        
H       -0.960117       -2.537766        0.370660        
H        1.512660       -2.635057        0.896428        
H        0.650197        0.102803       -2.444923        
H        1.115784        1.804460       -2.119718        
H       -2.753779        1.933464       -0.429159        
