24
XYZ FILE GENERATED BY CARP
O       -0.760737        1.272750       -0.020348        
O       -0.652849       -1.967381       -1.602355        
O        1.740438       -1.737513        0.886391        
O        2.854972        0.552450        0.044807        
O        0.652107        1.070771       -1.638940        
O       -3.175802        0.728382        0.885648        
C       -0.409547       -1.355758       -0.338282        
C        1.085600       -1.070900       -0.194000        
C       -1.221100       -0.062100       -0.237500        
C        1.485926        0.297272        0.358052        
C        0.638800        1.413200       -0.253400        
C       -2.224203       -0.320094        0.882350        
H       -0.721068       -2.067794        0.435766        
H        1.498973       -1.496615       -1.116645        
H       -1.776485       -0.002016       -1.183428        
H        1.405926        0.294284        1.451811        
H        0.987556        2.449699       -0.179908        
H       -1.736607       -0.331718        1.862862        
H       -2.754552       -1.266118        0.740958        
H       -0.386051       -1.340096       -2.295731        
H        1.526478       -2.683778        0.817064        
H        2.947545        0.552398       -0.923297        
H        0.052212        0.319091       -1.777402        
H       -2.693234        1.563448        1.010910        
