24
XYZ FILE GENERATED BY CARP
O       -0.687713        1.173225       -0.720270        
O       -0.335802       -1.266049       -2.130725        
O        1.159739       -1.333055        1.208214        
O        2.786488        0.518168       -0.828111        
O        1.216130        1.917477       -1.457262        
O       -1.978221        0.544577        1.944165        
C       -0.346395       -1.227693       -0.706093        
C        1.085600       -1.070901       -0.194005        
C       -1.221415       -0.061724       -0.239670        
C        1.669366        0.322784        0.038716        
C        0.639038        1.413207       -0.254874        
C       -1.083043       -0.312917        1.259903        
H       -0.756089       -2.182905       -0.355505        
H        1.709286       -1.828655       -0.684105        
H       -2.266021       -0.244144       -0.519112        
H        2.046801        0.401613        1.065384        
H        0.720692        2.209362        0.495195        
H       -0.070828       -0.089828        1.613371        
H       -1.328196       -1.346233        1.521406        
H        0.019623       -0.419651       -2.451230        
H        0.800308       -2.224487        1.357076        
H        2.472263        0.445133       -1.745566        
H        0.870789        1.402476       -2.205315        
H       -1.751564        1.459240        1.703508        
