24
XYZ FILE GENERATED BY CARP
O       -0.649937        1.124762       -0.790712        
O       -0.804200       -2.290109       -1.060910        
O        1.542889       -1.371178        1.125527        
O        2.093998        0.370367       -1.845924        
O        1.100703        2.357994       -1.218370        
O       -2.623109        1.058918        1.338848        
C       -0.412044       -1.349659       -0.064453        
C        1.085600       -1.070900       -0.194000        
C       -1.221100       -0.062100       -0.237500        
C        1.672392        0.310687       -0.483495        
C        0.638800        1.413200       -0.253400        
C       -1.768052       -0.059344        1.186465        
H       -0.614758       -1.804128        0.913072        
H        1.528799       -1.826178       -0.854693        
H       -2.074340       -0.094165       -0.928727        
H        2.565516        0.471301        0.132340        
H        0.626938        1.928458        0.713931        
H       -0.964329        0.031671        1.924729        
H       -2.343251       -0.964501        1.401086        
H       -0.634635       -1.892818       -1.932027        
H        1.218164       -2.259856        1.350930        
H        1.314887        0.223214       -2.409063        
H        0.811466        2.066907       -2.099097        
H       -2.101740        1.856684        1.144835        
