24
XYZ FILE GENERATED BY CARP
O       -0.782558        1.297538       -0.266630        
O       -0.172991       -0.898907       -2.242350        
O        1.070335       -0.974564        1.231100        
O        2.523163        0.458593       -1.384390        
O        1.007157        1.780910       -1.582407        
O       -2.329190        0.381138        1.830643        
C       -0.298672       -1.124692       -0.840785        
C        1.085600       -1.070901       -0.194005        
C       -1.221415       -0.061724       -0.239670        
C        1.710732        0.323919       -0.218480        
C        0.638800        1.413200       -0.253400        
C       -1.363446       -0.460361        1.227259        
H       -0.724530       -2.126668       -0.707072        
H        1.624698       -1.995084       -0.436146        
H       -2.206212       -0.154304       -0.713138        
H        2.373512        0.449054        0.646265        
H        0.852744        2.277854        0.385319        
H       -0.421972       -0.332374        1.771807        
H       -1.694821       -1.497134        1.334572        
H        0.197575       -0.009220       -2.371100        
H        0.593065       -1.751221        1.570245        
H        1.952929        0.343839       -2.163787        
H        0.536002        1.202608       -2.205021        
H       -2.024739        1.299146        1.728332        
