24
XYZ FILE GENERATED BY CARP
O       -0.782466        1.297435       -0.264397        
O       -0.735700       -2.145940       -1.350080        
O        1.302550       -0.719102        1.173332        
O        1.167452        0.194118       -2.247291        
O        1.151203        2.228568       -1.306858        
O       -2.996692        0.712186        1.159954        
C       -0.415129       -1.362707       -0.203371        
C        1.085600       -1.070901       -0.194005        
C       -1.221305       -0.061851       -0.238419        
C        1.448418        0.261652       -0.849427        
C        0.638800        1.413200       -0.253400        
C       -2.028293       -0.312830        1.031888        
H       -0.676520       -1.955332        0.681875        
H        1.771280       -1.898613       -0.413343        
H       -1.918975       -0.041929       -1.085593        
H        2.525491        0.442988       -0.750681        
H        0.859711        1.933304        0.685776        
H       -1.392923       -0.285352        1.923424        
H       -2.547458       -1.274892        0.998306        
H       -0.513764       -1.625425       -2.140806        
H        1.085439       -1.498945        1.712506        
H        0.215568        0.026768       -2.355476        
H        0.695105        1.991194       -2.131296        
H       -2.524109        1.561767        1.187773        
