72
/home/eugene/Documents/CarPy_test_cases/Lewis_Antigens/T1/Fuc_a14a/conf_0009/input.log
C          4.72450       -1.50110       -0.88570
H          5.68270       -1.36300       -0.37460
O          4.70680       -2.62980       -1.68110
H          5.42080       -2.57160       -2.32280
C          4.39900        0.89080       -1.10890
H          3.93440        1.53480       -1.86090
O          4.45400       -0.39100       -1.73330
C          3.60260       -1.62200        0.13110
H          3.76040       -2.48350        0.78160
N          2.37890       -1.79030       -0.64410
H          2.45520       -1.53410       -1.62200
C          1.19360       -2.00900       -0.16500
O          1.07750       -2.32980        1.07650
C          0.00010       -1.88430       -1.03540
H         -0.59560       -1.05090       -0.64860
H         -0.59060       -2.80190       -0.98300
H          0.27090       -1.68190       -2.07100
C          3.53930       -0.34000        0.98920
H          2.63350       -0.38260        1.59270
O          4.61420       -0.29260        1.87810
H          5.39830        0.05730        1.42320
C          3.44370        0.90780        0.09190
H          3.66350        1.78540        0.71360
O          2.13730        1.04230       -0.46740
C          5.77200        1.48280       -0.85860
H          5.64630        2.53970       -0.59240
H          6.34170        1.42080       -1.79180
O          6.44800        0.77930        0.17720
H          7.30190        1.18360        0.34840
C          1.16170        1.56980        0.35150
H          1.59790        2.29530        1.05990
C         -0.43790        0.90020        1.98960
H         -0.02970        1.64350        2.69630
O          0.57030        0.49950        1.08290
C          0.09440        2.24170       -0.49030
H         -0.30790        1.49420       -1.19080
O          0.67360        3.31830       -1.17140
H         -0.05180        3.86410       -1.49600
C         -1.02590        2.73070        0.42590
H         -0.57630        3.45210        1.12530
O         -1.98230        3.41860       -0.32750
H         -2.80680        2.90560       -0.37460
C         -1.58990        1.59120        1.26210
H         -2.27750        2.01310        2.00620
O         -2.30820        0.70530        0.40680
C         -0.79860       -0.31920        2.82910
H         -1.63450       -0.07880        3.49480
H          0.05890       -0.57120        3.45610
O         -1.09150       -1.49160        2.08090
H         -1.98960       -1.44220        1.69640
C         -3.56390        0.27070        0.86770
H         -3.72270        0.61930        1.89330
C         -3.63120       -1.84850       -0.30250
H         -2.70710       -1.63310       -0.85370
O         -3.58660       -1.13180        0.94660
C         -4.68150        0.79360       -0.02270
H         -5.62870        0.56130        0.48050
O         -4.51450        2.18880       -0.14060
H         -5.16030        2.49980       -0.78630
C         -4.68240        0.12380       -1.38660
H         -3.75050        0.37090       -1.90540
O         -5.73020        0.63760       -2.16920
H         -6.53670        0.18560       -1.89170
C         -4.77590       -1.38090       -1.19700
H         -4.66190       -1.87170       -2.17320
O         -6.05970       -1.62580       -0.65950
H         -6.31930       -2.53600       -0.81400
C         -3.70050       -3.31380        0.05320
H         -4.59820       -3.52060        0.64040
H         -2.83710       -3.61480        0.65150
H         -3.71600       -3.92590       -0.85270
H          0.14830       -2.11650        1.43030
