72
/home/eugene/Documents/CarPy_test_cases/Lewis_Antigens/T1/Fuc_a14a/conf_0003/input.log	Energy: -1233185.8093849
C          2.82008        0.13700       -2.09216
H          2.81765        1.14454       -2.51978
O          4.04472       -0.50883       -2.31792
H          4.26372       -0.45903       -3.25291
C          1.35543       -1.78644       -2.16080
H          2.15492       -2.51783       -2.33707
O          1.73546       -0.50574       -2.68170
C          2.65191        0.20223       -0.57738
H          1.79677        0.84225       -0.36547
N          3.82323        0.81489        0.01632
H          4.70810        0.55705       -0.40485
C          3.85579        1.56969        1.08604
O          2.83600        1.94564        1.75666
C          5.16139        2.06666        1.58875
H          5.98954        1.80110        0.93299
H          5.33228        1.64453        2.58252
H          5.10892        3.15186        1.69822
C          2.40138       -1.18943       -0.00649
H          3.21345       -1.86884       -0.30165
O          2.37575       -1.03835        1.38744
H          2.14452       -1.87526        1.81576
C          1.10451       -1.67449       -0.65673
H          0.29664       -0.95199       -0.49932
O          0.72848       -2.94538       -0.14402
C          0.13203       -2.18757       -2.96069
H         -0.31502       -3.07673       -2.51685
H          0.43492       -2.42027       -3.98784
O         -0.85225       -1.17505       -2.95246
H         -0.48336       -0.39829       -3.38189
C         -0.46585       -2.95147        0.58934
H         -0.61263       -4.00616        0.87242
C         -2.72887       -2.17388        0.35374
H         -3.13002       -3.03925        0.90805
O         -1.49373       -2.52560       -0.25748
C         -0.33097       -2.07022        1.82950
H          0.15381       -1.15063        1.50857
O          0.56500       -2.63808        2.77203
H          0.32927       -3.55581        2.94140
C         -1.62414       -1.60796        2.46901
H         -2.15384       -2.42638        2.97629
O         -1.30932       -0.58079        3.40118
H         -0.78073       -0.97558        4.10245
C         -2.52153       -1.04909        1.36775
H         -3.49042       -0.73993        1.77789
O         -1.87339        0.02988        0.72955
C         -3.70455       -1.89463       -0.78109
H         -4.66406       -1.59652       -0.34722
H         -3.86421       -2.84477       -1.31045
O         -3.30716       -0.88567       -1.65968
H         -2.46360       -1.13121       -2.07344
C         -2.04126        1.31645        1.27134
H         -2.30809        1.26246        2.32967
C         -2.90675        2.19284       -0.76394
H         -2.84730        1.19231       -1.20464
O         -3.06057        2.04130        0.66131
C         -0.70102        2.02419        1.07311
H         -0.75294        3.00547        1.55850
O          0.36776        1.27406        1.64773
H          0.03015        0.75227        2.39227
C         -0.43669        2.19972       -0.41233
H         -0.34815        1.20929       -0.86978
O          0.78830        2.87056       -0.63340
H          0.60111        3.81409       -0.54289
C         -1.60885        2.93327       -1.05633
H         -1.45024        2.95988       -2.13961
O         -1.59814        4.28214       -0.61832
H         -2.19572        4.36657        0.13126
C         -4.14255        2.89456       -1.27007
H         -4.26624        3.88164       -0.81773
H         -5.02502        2.29552       -1.04062
H         -4.08296        3.01983       -2.35377
H          1.90404        1.60017        1.55443
