72
/home/eugene/Documents/CarPy_test_cases/Lewis_Antigens/T1/Fuc_bn16a/conf_0022/input.log	Energy: -1233183.9318514
C          0.32855        3.82574       -0.58019
H         -0.50841        4.30497       -0.05949
O          1.19590        4.74701       -1.13925
H          0.71833        5.27270       -1.78780
C         -1.00338        1.93078       -1.26879
H         -1.08146        1.32803       -2.17305
O         -0.14009        3.00647       -1.63640
C          1.11285        3.00640        0.43599
H          1.38909        3.64049        1.28171
N          2.31651        2.52619       -0.23057
H          2.36117        2.69690       -1.22761
C          3.26157        1.81997        0.31428
O          3.23977        1.64823        1.58930
C          4.33904        1.23281       -0.51863
H          5.31322        1.52920       -0.12214
H          4.26284        1.54295       -1.56032
H          4.26000        0.14155       -0.46043
C          0.23012        1.85628        0.94430
H          0.82624        1.19726        1.57609
O         -0.79300        2.46250        1.70099
H         -1.64444        2.06549        1.46937
C         -0.34482        1.04175       -0.21770
H         -1.08460        0.33800        0.16899
O          0.66637        0.29597       -0.89737
C         -2.41084        2.45111       -0.89222
H         -3.06218        2.42143       -1.76979
H         -2.34804        3.48602       -0.55454
O         -3.00778        1.73599        0.18279
C          0.98296       -0.93382       -0.34854
H          0.07295       -1.46171       -0.01502
C          2.28753       -1.89767        1.39522
H          1.42338       -2.46893        1.77095
O          1.84720       -0.71490        0.75529
C          1.72679       -1.72721       -1.41086
H          2.59048       -1.12583       -1.72640
O          0.91177       -2.05512       -2.50807
H          0.63806       -1.24061       -2.93864
C          2.22532       -3.03812       -0.82923
H          1.35227       -3.65724       -0.57379
O          3.07124       -3.71231       -1.72933
H          2.62179       -3.77872       -2.57775
C          3.04449       -2.80037        0.43045
H          3.23063       -3.76531        0.91978
O          4.28557       -2.18759        0.09966
H          4.66696       -2.69928       -0.62520
C          3.10950       -1.46706        2.59910
H          3.48771       -2.34931        3.12527
H          2.48134       -0.90028        3.28794
O          4.19666       -0.61107        2.24953
H          4.70691       -1.07469        1.56559
C         -3.73277        0.58859       -0.16686
H         -4.66718        0.87668       -0.67924
C         -3.50071       -1.44757       -1.36027
H         -4.50202       -1.28008       -1.78803
O         -2.93257       -0.18210       -1.02154
C         -4.02684       -0.14036        1.13746
H         -3.07205       -0.24615        1.67164
O         -4.98172        0.53065        1.92399
H         -4.61746        1.36675        2.22510
C         -4.57281       -1.53224        0.87513
H         -5.57923       -1.43939        0.44079
O         -4.61265       -2.28517        2.06508
H         -5.10017       -1.78146        2.72416
C         -3.68109       -2.28232       -0.10198
H         -4.17752       -3.22353       -0.37598
O         -2.41687       -2.54199        0.47701
H         -2.59970       -2.92322        1.34337
C         -2.60667       -2.08866       -2.39238
H         -3.03107       -3.04329       -2.71206
H         -1.61187       -2.27439       -1.98569
H         -2.52315       -1.44288       -3.26945
H          3.74049        0.80375        1.86658
