72
/home/eugene/Documents/CarPy_test_cases/Lewis_Antigens/T1/Fuc_a12a/conf_0000/input.log	Energy: -1233187.3774746
C          3.16939       -3.10051        1.05729
H          4.03568       -3.76406        1.01228
O          2.67255       -3.01445        2.36182
H          2.51082       -3.89999        2.69950
C          1.10133       -2.86492       -0.09143
H          0.66135       -2.53675        0.85879
O          2.24162       -3.67969        0.17949
C          3.57713       -1.67271        0.59978
H          4.66597       -1.60190        0.56154
N          3.07249       -0.68700        1.54891
H          2.47959       -1.04998        2.28622
C          3.27487        0.59848        1.48154
O          4.11514        1.04025        0.61828
C          2.54409        1.52038        2.38434
H          3.25381        2.16260        2.91154
H          1.93266        0.98286        3.10843
H          1.89796        2.15633        1.76790
C          3.02825       -1.41872       -0.81801
H          3.27087       -0.40100       -1.11335
O          3.67015       -2.26327       -1.73746
H          3.38665       -3.16875       -1.56861
C          1.50709       -1.60685       -0.86607
H          1.20806       -1.68790       -1.91685
O          0.78207       -0.54335       -0.25169
C          0.10083       -3.72018       -0.85858
H         -0.32347       -4.48126       -0.19186
H          0.63271       -4.24194       -1.66008
O         -0.88264       -2.92998       -1.46749
H         -1.42207       -2.47542       -0.80135
C          0.56480        0.59684       -0.99963
H          0.31926        0.34489       -2.04446
C          1.66674        2.62665       -1.59632
H          1.40101        2.49673       -2.65772
O          1.75101        1.36899       -0.95322
C         -0.58180        1.34898       -0.33755
H         -0.35629        1.40798        0.73454
O         -1.80425        0.67739       -0.55449
C         -0.73930        2.76169       -0.88016
H         -1.15871        2.69066       -1.89490
O         -1.56677        3.53905       -0.05351
H         -2.15883        2.95463        0.45584
C          0.59770        3.49335       -0.95270
H          0.46812        4.40378       -1.55295
O          1.01262        3.84618        0.36082
H          0.22046        4.19720        0.79465
C          3.05707        3.23776       -1.54361
H          3.04904        4.22442       -2.01675
H          3.76150        2.60294       -2.08302
O          3.55477        3.35010       -0.20852
H          2.87262        3.81829        0.30285
C         -2.28783       -0.13747        0.49194
H         -1.47255       -0.37298        1.18176
C         -3.86193       -1.29462       -0.90444
H         -3.57134       -0.69477       -1.77636
O         -2.72934       -1.36009       -0.01256
C         -3.42487        0.56963        1.21528
H         -3.71475       -0.05543        2.06840
O         -2.96083        1.83094        1.66966
H         -3.73631        2.29056        2.01665
C         -4.62463        0.75193        0.30054
H         -4.33663        1.40390       -0.52970
O         -5.65477        1.40876        0.99999
H         -6.13232        0.72886        1.49162
C         -5.05196       -0.59784       -0.24652
H         -5.82192       -0.44492       -1.01481
O         -5.58604       -1.30248        0.85985
H         -6.11355       -2.04303        0.55462
C         -4.17191       -2.71012       -1.32991
H         -4.38707       -3.33394       -0.45808
H         -3.32857       -3.14836       -1.86545
H         -5.03873       -2.71742       -1.99668
H          3.94500        2.02477        0.37118
