72
/home/eugene/Documents/CarPy_test_cases/Lewis_Antigens/T1/Fuc_c_bn12b/conf_0014/input.log	Energy: -1233168.9362828
C         -0.20558        3.58006        1.13882
O         -0.58472        4.85126        0.66697
H         -0.53481        5.48131        1.39267
H         -0.75166        3.35169        2.06185
C         -0.56548        2.58022        0.04327
N         -1.90975        2.05176        0.23412
C         -2.68843        1.71648       -0.76586
H         -2.02075        1.55978        1.12838
C         -2.50954        2.26123       -2.13338
O         -3.67607        0.89695       -0.63525
H         -3.40443        2.05422       -2.71688
H         -1.65116        1.76227       -2.59261
H         -2.31813        3.33520       -2.10999
H         -0.50031        3.07487       -0.92495
C          0.39415        1.39833        0.05715
O         -0.07889        0.49947       -0.91177
H          0.50700       -0.27819       -0.84971
H          0.38141        0.93871        1.05614
C          1.82415        1.87010       -0.20179
O          2.76237        0.92686        0.31443
H          1.96066        1.97092       -1.28656
C          2.10906        3.21143        0.49294
H          3.03043        3.08440        1.06579
C          2.33301        4.35467       -0.48631
O          1.27397        4.54937       -1.39607
H          0.58693        5.04321       -0.93137
H          3.22283        4.11646       -1.07751
H          2.54767        5.26769        0.08141
O          1.13523        3.50081        1.50229
C         -3.92561        0.12092        0.62946
H         -4.18549        0.87167        1.38158
C         -2.66165       -0.63517        1.03821
O         -2.12207        0.03667        2.16487
H         -1.52917       -0.58930        2.60285
H         -1.93583       -0.62923        0.21735
C         -2.99281       -2.08407        1.35602
O         -1.85675       -2.73410        1.83500
H         -1.20630       -2.88925        1.12157
H         -3.73674       -2.11843        2.15934
C         -3.60965       -2.66961        0.09720
O         -2.64036       -2.53083       -0.93036
H         -2.85147       -3.13605       -1.64357
H         -3.83008       -3.72979        0.26406
C         -4.93721       -1.94386       -0.19432
H         -5.72377       -2.48640        0.33618
C         -5.28248       -1.85701       -1.66305
H         -6.24259       -1.35429       -1.78786
H         -5.37268       -2.86113       -2.09008
H         -4.52008       -1.30612       -2.21660
O         -5.02247       -0.62754        0.41264
C          3.05934       -0.18946       -0.44538
H          3.26929        0.09237       -1.49217
C          4.26158       -0.85538        0.20461
O          5.41908       -0.06193        0.10872
H          5.31989        0.69838        0.68694
H          3.99230       -1.05421        1.24974
C          4.57632       -2.17053       -0.48403
O          5.57921       -2.87726        0.20269
H          6.31527       -2.27735        0.36054
H          4.88881       -1.95814       -1.51813
C          3.35180       -3.07211       -0.51423
O          3.03166       -3.52460        0.78562
H          3.84960       -3.82647        1.19820
H          3.56352       -3.92815       -1.17015
C          2.15829       -2.32327       -1.08616
H          2.36771       -2.13404       -2.15117
C          0.85217       -3.10216       -0.99802
O          0.38023       -3.25386        0.31855
H          1.12404       -3.54108        0.86872
H          1.00427       -4.07503       -1.48563
H          0.06965       -2.57298       -1.54879
O          1.95378       -1.08436       -0.41196
