29
536270
O          0.13110        0.98430        0.60070
O          0.44690       -2.59470       -0.10980
O          3.19060       -1.70880        0.09730
O          3.46190        1.05030       -0.89980
O          1.57180        2.79210        0.28450
O         -2.52510        0.29250        0.74930
O         -3.34240       -0.91980       -1.03930
C          0.84710       -1.32200        0.39160
C          2.11640       -0.87030       -0.33090
C         -0.28610       -0.31540        0.17930
C          2.44810        0.58660       -0.00830
C          1.22170        1.48490       -0.16910
C         -1.52740       -0.68400        0.98570
C         -3.37880        0.05630       -0.30260
C         -4.37580        1.16800       -0.42860
H          1.06000       -1.44310        1.46080
H          2.02440       -1.01420       -1.41460
H         -0.56370       -0.26410       -0.88210
H          2.86010        0.65800        1.00540
H          0.91920        1.58410       -1.21800
H         -1.30540       -0.65060        2.05830
H         -1.88870       -1.69360        0.75960
H          0.24780       -2.49540       -1.05640
H          2.94360       -2.62660       -0.10900
H          3.11680        0.98840       -1.80680
H          2.14770        2.70560        1.06230
H         -3.85580        2.11130       -0.61310
H         -4.97640        1.23080        0.48210
H         -5.04100        0.96530       -1.27290
