24
XYZ FILE GENERATED BY CARP
O       -0.696014        1.193495        0.196872        
O        0.212822       -0.012686       -2.175865        
O        0.837133       -1.684420        1.071815        
O        2.873335        0.549880       -0.200807        
O        0.647459        0.734690       -1.509069        
O       -2.436248       -0.635629        1.737763        
C       -0.154072       -0.802175       -1.047479        
C        1.085600       -1.070900       -0.194000        
C       -1.221100       -0.062100       -0.237500        
C        1.550532        0.306964        0.277428        
C        0.638800        1.413200       -0.253400        
C       -1.317194       -1.008872        0.954653        
H       -0.548237       -1.752919       -1.426833        
H        1.852204       -1.680278       -0.688328        
H       -2.162457       -0.127982       -0.799948        
H        1.600412        0.327376        1.372789        
H        1.014424        2.426188       -0.438128        
H       -0.428023       -0.944569        1.590679        
H       -1.449644       -2.047195        0.637530        
H        0.557200        0.835972       -1.849334        
H        0.505879       -2.582600        0.899931        
H        2.850793        0.529029       -1.172841        
H        0.028467       -0.012704       -1.460891        
H       -2.307983        0.288377        2.012825        
